ITEM: TIMESTEP
0
ITEM: NUMBER OF ATOMS
1382
ITEM: BOX BOUNDS pp pp pp
0.0000000000000000e+00 1.2000000000000000e+01
0.0000000000000000e+00 1.2000000000000000e+01
0.0000000000000000e+00 1.2000000000000000e+01
ITEM: ATOMS id type x y z vx vy vz
64 1 0.221649 1.02223 0.803331 0.612614 -1.10711 1.08229
50 1 1.36527 0.956809 0.946899 1.19656 -0.227576 1.6705
311 1 2.44613 0.342533 0.0181133 -0.479333 0.75323 -0.486538
624 1 2.31183 1.01365 1.13154 1.1212 -1.3533 -1.5559
458 1 3.24015 0.828581 0.497728 -1.25028 -0.86946 0.464932
650 1 4.21183 1.24043 0.956552 1.11622 -0.0216429 0.253439
489 1 3.8739 0.15959 1.05544 -0.249004 -0.0746226 1.02647
99 1 4.13642 0.74901 0.0841053 -0.124534 0.145513 0.379387
930 1 5.2054 1.35798 0.592856 0.957476 0.0930841 1.57151
1351 1 4.81059 0.279785 1.46821 0.998514 -1.04136 0.305206
1321 1 6.89785 1.36095 0.667312 -0.754236 0.524299 -0.665408
79 1 6.91134 0.242072 0.680921 0.1485 -0.00274067 0.910724
253 1 6.01647 0.869115 1.11891 -1.47126 0.373719 0.533823
1072 1 8.7828 0.189819 0.599592 -0.459506 -0.620207 -0.624803
1119 1 8.51371 1.32869 0.999217 -0.0770537 0.414322 -1.33679
28 1 7.75961 0.576805 1.24066 -1.49644 1.79059 0.438967
620 1 7.66968 0.784632 0.185607 0.183165 -0.129387 -1.4608
158 1 9.89753 0.46075 0.360796 0.0694742 -1.28166 -0.00045503
592 1 9.50892 1.15044 1.28833 -0.793526 -0.300807 -0.971969
479 1 9.86534 0.208373 1.42366 0.919393 0.428424 0.0491204
977 1 10.9812 0.525043 0.857869 0.367335 -0.631811 2.01834
665 1 11.8599 0.0550938 0.202369 1.34147 -1.40427 -0.218201
793 1 2.21713 1.56344 0.21854 2.32647 -1.02281 0.958135
860 1 1.55813 2.41667 0.864088 0.291598 -1.33146 0.27444
648 1 2.80386 2.25508 0.958316 0.00797199 0.61023 -0.939475
27 1 4.13333 2.39216 0.55085 -0.298511 1.04102 -0.0283675
240 1 4.70088 2.16545 1.37958 1.05987 -1.70623 1.53081
96 1 5.5369 2.67617 1.01231 0.523327 1.08671 -0.0458211
515 1 6.62933 2.38711 0.798062 -0.480735 1.11112 -0.436486
413 1 6.13872 2.98331 0.178968 1.58329 0.429 -0.274487
887 1 7.72689 2.18553 0.556235 -0.554003 1.61528 0.195324
1284 1 8.26638 2.56131 1.38174 0.808129 -1.50327 0.790973
1031 1 8.79612 2.32001 0.564786 -0.942906 -0.823733 0.308308
1206 1 9.72185 1.69179 0.457698 -0.879736 -0.601706 -0.705638
1310 1 9.27546 2.91068 1.41582 1.07579 1.49852 0.13722
734 1 10.2345 2.49747 0.330367 0.400257 -1.15044 -0.608984
419 1 11.9709 2.12463 0.358392 0.536655 -0.141931 0.766993
1189 1 10.9363 1.52012 0.558502 2.36076 0.295291 -0.62219
904 1 1.43537 3.88372 0.539618 -0.555634 0.570272 -0.341696
1174 1 0.38649 3.14253 1.06665 0.756695 1.91742 -1.60879
1236 1 2.98801 3.22069 0.631758 0.0645662 -1.3845 -0.421012
123 1 2.06937 3.07422 0.174237 -2.28065 -1.15071 0.116416
814 1 2.00447 4.41434 1.23302 1.40459 -0.342549 0.604743
1144 1 2.0344 3.41436 1.24073 0.732522 -0.26285 -1.98408
686 1 2.52945 4.08149 0.210302 -0.316808 -0.431539 -0.395197
720 1 3.00636 4.17066 1.28887 1.40656 -0.739924 -2.73807
954 1 4.38575 3.82128 0.324031 0.461488 -0.15627 -0.0182677
438 1 3.82058 3.5795 1.45362 0.72139 0.412658 2.30412
1243 1 4.80261 4.32344 1.09768 -1.13597 1.52058 -1.37381
166 1 4.81995 3.33505 1.39448 1.31474 -0.396825 -1.10682
554 1 5.57809 3.74048 0.614352 -0.839638 -2.68968 1.23538
13 1 6.33529 3.47705 1.30732 -2.09092 -0.438944 -1.77406
1115 1 6.56742 4.45489 1.25422 0.0272099 -0.231893 0.642362
542 1 7.48262 3.85696 1.271 -0.916273 1.22453 0.741733
483 1 7.15459 3.44879 0.358567 0.338974 -1.43973 -0.743814
1186 1 8.44141 4.32856 0.568621 0.28719 -0.392205 1.4174
1180 1 8.99246 3.90227 1.3351 0.374638 -0.286388 0.548944
241 1 8.25205 3.27664 0.73794 -0.727926 0.965421 0.363422
16 1 9.44614 4.26697 0.168365 0.912313 0.997084 0.801599
173 1 9.46376 3.31624 0.480453 -0.295849 0.618199 0.172704
1125 1 10.3885 4.154 0.630363 -0.958959 -1.30935 -0.424366
519 1 0.543739 4.98892 1.49095 -0.374322 0.192009 -0.311914
1166 1 1.09023 5.8215 1.08906 -0.929596 1.22433 1.15649
1167 1 0.0888662 5.16835 0.181067 -0.273535 1.12144 1.62733
1042 1 0.129469 5.79761 1.05879 -0.411374 1.67393 0.0686757
533 1 1.37996 4.96522 0.580971 -1.01644 0.246285 -1.065
9 1 2.65119 5.19871 0.87077 1.09487 -0.373632 -1.51449
735 1 1.80093 5.89674 0.20772 -1.68003 -2.61169 -0.364524
869 1 3.92553 4.8853 0.35169 0.771154 -1.14695 1.38473
392 1 4.94024 5.95522 0.895569 -0.451321 -0.862077 -0.886063
727 1 5.78632 5.25921 0.621584 1.12466 -1.14041 0.836188
1063 1 4.95549 4.88599 0.324683 1.48379 1.67803 0.765028
49 1 6.5956 4.66599 0.256298 0.545365 1.0014 1.0749
926 1 6.37747 5.45331 1.43013 -1.2805 -0.638437 0.516105
86 1 7.25714 5.29237 0.934117 -1.07515 0.108382 -0.993296
919 1 8.05629 5.64911 0.399472 -0.864251 0.844156 -0.809391
1205 1 10.3308 5.45083 0.895559 1.71277 -0.156948 0.109559
244 1 9.25604 5.9522 1.39034 0.756448 -0.889397 0.932342
398 1 9.59827 4.69281 1.23189 1.27978 0.182473 -1.48602
842 1 9.33118 5.28276 0.479896 0.681929 -0.0449149 -0.709725
345 1 11.2709 4.92855 0.964254 -1.85515 0.0962917 -0.648051
568 1 11.231 5.81495 0.389827 -0.470841 -0.207139 1.51686
464 1 0.872016 6.8224 0.645972 -0.0165955 0.711703 -0.46427
855 1 0.15309 6.29805 0.0526375 -0.651191 0.00421959 0.816592
541 1 1.77117 6.70512 1.22819 -0.403947 0.40057 0.236422
993 1 2.61153 7.1857 1.46226 0.278242 0.950584 -0.113493
490 1 1.73949 6.9633 0.0737401 -0.463587 -0.939426 -0.255449
1121 1 2.68208 6.43782 0.597882 -0.192978 -1.44714 0.195658
262 1 2.58703 7.44594 0.390917 -1.17817 0.332628 -0.482044
870 1 3.89223 6.46385 0.84227 -0.0965425 0.587612 1.29811
530 1 3.75664 7.3983 1.35022 1.37767 1.83143 -1.17198
914 1 4.6073 7.21805 0.465026 1.84771 -0.507013 0.676373
87 1 5.23917 6.49329 0.157655 -0.658282 -1.06157 1.21929
505 1 5.55356 7.0383 1.2064 0.6718 1.86101 0.548507
307 1 5.99619 6.17319 0.845609 -1.45078 -0.409327 0.880313
210 1 7.13975 6.34886 0.428505 1.44992 -2.33513 -0.498714
797 1 6.61774 7.03658 0.99952 -3.53151 -1.20563 2.64922
1185 1 7.89726 6.86203 0.116279 -1.04785 1.60217 0.799449
1006 1 8.21972 6.2703 1.2422 -0.0591405 -1.30009 0.255952
721 1 7.61452 7.16847 1.13329 0.77033 -0.705822 0.286307
1207 1 8.80278 6.37022 0.108782 -0.451204 -0.69902 1.66405
1009 1 9.72173 6.38949 0.642797 0.520242 -0.296331 -0.766232
951 1 9.01476 7.05646 0.877386 -0.554569 1.10016 -0.721526
883 1 11.1532 6.10173 1.36759 0.730384 -1.39945 1.14795
623 1 11.8546 7.05314 1.13586 1.20117 -0.383701 -1.1892
137 1 11.8956 7.3626 0.123275 0.21569 0.18532 -1.15096
1260 1 10.7692 7.10538 0.774712 0.553799 0.815051 0.0599719
1152 1 1.47415 7.89998 0.598669 0.237225 1.49595 0.255862
894 1 0.53337 8.22025 0.494707 0.931022 -0.0704053 -1.46463
672 1 2.04472 8.85796 0.914572 -1.11099 -0.515657 -0.0526078
278 1 2.95676 8.31816 0.951271 0.997797 1.1187 0.758577
636 1 4.05545 8.22325 0.608562 0.520036 -0.135508 -1.80106
194 1 4.83833 8.9112 0.858746 -0.809738 -1.10565 -0.023059
1024 1 5.39608 7.89788 0.684309 -0.771738 0.00574311 -0.424444
433 1 7.2117 7.56504 0.148314 0.0652096 1.6521 0.0758241
884 1 7.08936 8.10378 0.951319 -0.96563 0.399726 -0.250631
523 1 6.06582 8.71131 1.07215 -0.754062 -0.871495 -0.37427
1088 1 6.42039 8.25743 0.149972 -1.01692 -2.47375 -0.464128
437 1 8.12172 7.82525 0.570788 0.435876 -0.341152 0.515216
947 1 7.81436 8.94606 0.44397 1.79014 -0.402673 0.917281
26 1 9.13961 8.49121 0.287168 0.32278 -1.24715 0.828055
974 1 9.74641 7.75581 0.781627 1.63245 -0.709834 -1.25926
994 1 10.2427 8.99698 1.02196 -0.759845 0.748517 -1.00081
1253 1 11.4391 8.04182 0.83692 1.04478 -0.394729 0.27597
654 1 11.839 8.98777 0.850797 -0.800388 1.10686 -0.149186
681 1 0.611224 9.53353 1.42559 -2.01849 -0.945598 0.492399
599 1 1.15589 9.18148 0.591449 0.535004 1.22269 1.84506
2 1 0.11166 9.93861 0.162329 0.188208 1.11958 1.62646
674 1 1.20639 10.4849 0.587839 -0.133022 -0.835994 -0.994009
43 1 2.35128 10.1307 0.0576411 0.527969 -1.14747 -0.360366
165 1 2.88128 9.51552 0.81531 1.92053 2.15864 -1.12526
671 1 2.09253 9.80823 1.4112 -0.0742345 0.0347178 1.0115
990 1 3.82037 9.03189 1.25706 -2.15111 0.475278 1.71373
237 1 3.62457 10.2929 0.094817 0.631241 2.9954 -0.193566
702 1 3.99594 9.29549 0.244052 -1.26055 0.495494 -0.511279
983 1 3.47359 10.0784 1.36982 -1.48865 -0.72937 -0.127504
267 1 4.37214 10.1224 0.801569 -0.419846 -0.0999515 1.05396
481 1 5.86798 9.38056 0.0358695 -1.39735 -0.210234 1.06336
851 1 5.443 9.90091 0.919808 1.60294 -0.065642 -0.289426
829 1 6.80178 9.78051 0.543409 -1.71645 -0.478378 -0.0624595
728 1 8.09124 9.86091 0.776573 0.423596 -1.24589 -0.422107
92 1 8.30083 9.15036 1.44921 1.72902 -0.290082 0.408006
616 1 8.7122 9.3795 0.0550908 -0.744918 0.586801 -0.114214
906 1 9.13257 9.43556 1.09811 -0.896163 0.382091 -0.491964
1179 1 9.61937 10.203 0.620136 -1.68137 -0.443912 -0.442302
670 1 10.9016 9.79646 0.337017 0.880608 0.119696 0.476025
1068 1 10.5833 10.1615 1.29863 0.283649 -1.51537 0.398614
723 1 11.6835 9.98856 1.44759 0.666768 0.124487 -0.736874
1229 1 0.424582 10.7616 1.37742 -0.93622 1.40867 0.513556
1172 1 0.950742 11.7411 1.35398 -0.640414 0.16954 -0.520203
1047 1 0.617844 11.3031 0.367754 0.805182 -0.748437 -0.547892
1127 1 1.78779 11.2527 0.374681 1.41058 0.327824 1.31155
355 1 2.64653 10.746 0.834553 0.0583366 -1.04184 -0.0733601
1065 1 2.55204 11.8258 1.18434 0.485328 -1.32388 -0.558366
473 1 3.54526 11.3124 0.680478 -2.68337 -0.395518 0.238015
736 1 4.58889 11.6729 0.398653 0.647929 -1.29525 -0.890344
1336 1 5.80834 11.7968 1.2103 0.47606 0.905573 -0.768927
350 1 5.69221 10.8493 1.21467 -0.739915 0.492363 0.690366
1079 1 6.81132 11.084 0.966179 0.684926 0.843245 -0.476886
925 1 6.02694 10.5801 0.249456 -0.288969 1.69402 0.290395
500 1 7.86995 11.6346 0.386073 0.275426 -0.863055 -0.114704
361 1 8.46948 10.7093 1.13374 0.9888 0.0823354 0.60595
902 1 9.516 11.394 0.811551 -0.996117 -2.44493 -0.550741
439 1 11.6573 11.6173 1.21728 -0.814856 1.87984 -0.373973
1354 1 11.4427 10.6062 0.526696 -0.148092 1.19113 -0.0346228
383 1 10.5795 11.2925 0.962797 -0.934824 0.0135442 0.0861546
403 1 0.569214 0.779235 1.70477 0.220974 -0.431557 -0.910971
545 1 0.319869 1.44754 2.81767 -0.574362 0.139472 0.548778
729 1 1.00561 0.0104201 2.42881 0.271741 0.643019 -0.151517
827 1 1.50094 1.19345 2.21894 1.87267 -0.759588 0.231863
72 1 2.62908 1.31733 2.07726 0.234054 2.26734 1.12439
862 1 2.12453 0.445026 2.27116 1.13471 -0.108078 0.585372
376 1 2.15314 1.38768 2.97672 0.102087 0.504109 0.497781
1339 1 4.11335 0.621838 2.34404 1.041 -0.0299529 0.881162
762 1 3.35854 1.32557 2.88509 -2.06876 1.31604 0.419048
965 1 3.23695 0.523306 1.64275 -1.20326 -1.60623 -0.79806
83 1 5.2447 0.877091 2.6259 0.280226 -1.62674 0.0813891
1001 1 7.20099 1.16499 2.33852 -0.441873 -1.78838 -0.0372605
1312 1 6.13062 0.155268 2.40495 0.637495 -1.14752 -0.0976091
997 1 6.33055 1.16887 2.77157 0.124532 -0.138565 -1.06655
1266 1 8.06848 1.44954 1.95362 0.206701 0.295047 0.0846011
800 1 8.6251 0.595505 1.81557 -0.195524 1.42173 -0.208254
60 1 8.04704 0.67549 2.80874 -0.943702 0.864955 2.28807
788 1 10.2481 0.993031 2.19966 0.0922692 -1.77557 1.49244
17 1 9.2712 1.02447 2.59044 0.986501 1.11954 0.760683
535 1 11.5168 0.958931 1.6588 0.285666 1.10763 -1.04844
924 1 10.8313 0.019798 1.77824 -0.0843777 0.21025 -0.837135
608 1 11.8051 0.44163 2.59247 -0.058344 -0.0707103 0.167269
150 1 0.118228 2.70939 2.05977 0.855222 -1.18551 1.12005
539 1 1.10181 2.78017 1.769 0.98765 -0.356275 1.33299
751 1 0.692995 1.78978 1.75734 -1.43426 0.436549 -0.227953
832 1 1.98108 2.52588 2.79871 -1.67368 -0.839636 -1.65377
1327 1 2.31471 2.28227 1.77243 -0.230884 -1.27203 -0.783715
387 1 3.61497 1.95798 1.61882 -1.44107 1.59345 0.455519
235 1 4.20265 2.62177 2.26117 -1.905 -0.105029 -0.584965
452 1 3.13437 2.31565 2.50657 -0.585482 -1.89082 0.307485
798 1 5.75401 1.6949 1.97513 -0.448721 0.0350997 -0.0837366
963 1 5.43763 2.68683 2.09178 -0.869328 -0.655643 -1.27346
1129 1 4.62922 1.59105 2.12843 -1.28107 -0.389701 -1.4654
261 1 5.43836 1.96186 2.91814 -0.2315 -0.552731 -0.786733
104 1 7.20867 2.76387 1.69305 0.47295 -0.00570853 -0.298629
461 1 6.71403 1.90634 1.66127 0.320066 0.552324 -1.52219
748 1 6.52157 2.31722 2.60554 -0.260151 0.903045 -0.711074
1372 1 7.80679 2.31041 2.4603 -0.205258 0.411899 1.35826
1177 1 8.83239 2.20342 2.19298 0.648745 -2.95015 -0.27652
733 1 10.4475 1.96778 1.61206 -0.096448 -0.313641 0.721863
895 1 9.93188 2.63881 2.48411 -0.718466 0.604349 -0.081678
923 1 11.2089 2.87216 1.54864 0.451694 0.600063 -1.14145
853 1 10.975 2.16482 2.58943 0.0133002 1.23974 -0.211344
233 1 0.63386 3.83696 1.77276 0.89805 -0.219136 -0.225292
1359 1 0.30972 4.49981 2.47848 -0.87606 1.0095 -0.447171
482 1 1.40914 4.47896 2.21711 -0.0187718 -0.980448 -0.0155345
463 1 0.489443 3.40666 2.7269 2.2236 -1.29054 -0.815257
528 1 2.92171 3.10196 1.84365 -0.740528 1.73514 2.43977
416 1 2.5215 3.99913 2.11916 -0.388739 -0.754106 -0.381526
1048 1 1.51447 3.44832 2.37855 0.55131 0.74321 1.47667
216 1 3.60484 3.70951 2.66181 -0.653082 -0.520863 0.325816
61 1 5.47611 4.18728 1.83582 -0.48034 0.712304 -0.476771
1331 1 4.68101 3.84698 2.35227 0.619952 0.554785 0.337759
455 1 6.99889 3.53431 2.28713 1.23676 0.734418 1.81869
138 1 6.04509 3.35024 2.70422 0.00160102 -2.04116 0.00825746
78 1 6.30901 4.37974 2.39741 0.283487 1.74418 0.0153946
296 1 8.19233 3.64999 2.23392 -0.5305 1.06576 -1.1599
1085 1 7.67873 4.41497 2.85711 0.471386 -0.591391 -0.166862
1086 1 10.1878 3.33444 1.72891 1.2499 0.264977 1.08305
1118 1 10.1021 4.12723 2.39103 -0.296342 -0.330118 0.502191
1014 1 9.23317 3.50623 2.43112 -0.525186 -1.20205 -1.44265
1216 1 11.1086 4.04017 1.58256 -0.334284 3.93385 0.480032
444 1 11.1758 3.29781 2.63205 -0.0715926 -2.04634 -0.346214
118 1 0.950193 5.44594 2.31014 1.51659 -0.740003 0.231961
331 1 1.82371 5.51931 1.75469 1.71881 0.883537 -0.74237
442 1 2.62423 4.92845 1.93601 1.81992 -0.568045 0.135042
1060 1 2.23644 5.31687 2.76367 -1.14452 -0.24799 -0.27371
206 1 3.40373 4.74468 2.71594 -0.312579 0.990009 -1.11653
668 1 4.00076 4.65732 1.58524 0.657471 -0.00727739 -0.0091719
682 1 3.44742 5.73768 2.32805 -0.0784759 -1.03305 1.39369
1219 1 4.3662 5.94478 1.88457 1.94493 1.56937 0.127252
508 1 5.1522 5.23212 1.60215 0.326046 -0.051468 -2.09243
796 1 4.94997 5.42746 2.66906 0.818272 0.0421407 -0.289276
1289 1 6.15403 5.40137 2.47495 0.0672515 -0.115647 -0.612866
864 1 7.17401 4.8962 2.1162 0.190806 -0.143277 -0.579828
273 1 7.3894 5.83813 1.83302 -1.26476 -0.524726 -0.0320164
757 1 8.32807 4.71298 1.51858 -1.33933 0.259898 -0.60432
510 1 8.75184 5.70258 2.19181 0.253026 3.23087 -1.62062
1365 1 9.02173 4.60103 2.42807 -1.07402 -0.0593987 -0.581531
485 1 9.73293 5.22105 2.17264 -0.158081 -0.190903 0.817811
1116 1 10.7906 4.88537 2.06944 0.344548 -1.49031 -0.461972
175 1 10.6625 5.78556 2.45105 0.977323 0.0334046 -0.900985
892 1 11.7234 5.3237 2.02604 -0.363049 -0.82714 0.312043
1308 1 11.3427 5.06717 2.88798 0.301537 -1.20521 0.0810389
270 1 0.653422 6.39803 2.17239 0.9181 -0.727746 1.26317
876 1 1.94835 7.21449 2.32962 -0.154555 2.16587 0.970745
978 1 1.58478 6.23666 2.6719 1.87979 0.0593016 1.59337
512 1 2.62449 6.07933 1.56952 -0.632271 0.12378 2.28821
143 1 2.78353 6.39024 2.9956 0.758799 -0.125953 3.44668
1158 1 3.39385 6.74077 2.23497 0.795681 0.240347 0.360969
885 1 4.43115 6.36633 2.82901 -0.627909 -0.911379 -1.14319
789 1 5.40915 6.13944 1.94037 0.595092 0.667435 -0.189159
110 1 4.60302 6.89514 1.66119 -0.436702 0.520014 -1.01401
425 1 5.39514 7.27911 2.24549 -1.31653 -0.517162 -1.63885
446 1 5.85482 6.56803 2.73634 1.09652 0.367781 -1.48848
577 1 6.89954 6.6795 2.90807 -0.0745875 -0.075421 0.915957
36 1 6.48918 6.39741 1.88235 -1.39989 -1.34353 1.13929
1176 1 7.40432 7.13429 2.16479 0.0973402 0.433375 -0.734348
548 1 6.44086 7.36715 2.09313 -0.2377 1.33914 -1.2871
631 1 8.05292 6.32381 2.60319 0.965108 -0.253694 0.264954
236 1 8.68552 7.2536 1.80625 0.99088 0.187182 -0.459775
1178 1 8.05384 7.35577 2.8566 0.791351 0.566009 -0.585296
429 1 9.61721 6.04914 2.80939 -1.91276 -0.661368 0.287734
465 1 9.55918 7.16721 2.30702 -0.706438 0.388128 1.237
1022 1 10.4012 6.75723 2.95186 0.146509 0.84479 -0.12561
561 1 10.28 6.68431 1.8875 -0.211579 1.30139 0.160862
299 1 11.5698 6.61792 2.37651 -0.447124 4.0351 -2.05258
224 1 1.16768 7.5033 1.56407 -0.172357 -0.949152 -0.447138
1255 1 0.264852 8.53771 1.6725 -1.4187 1.22445 -0.220598
985 1 0.920669 8.10445 2.42025 -1.28099 1.06621 1.10149
1274 1 2.67398 8.93195 1.84824 0.397288 -1.39951 0.257009
747 1 1.95865 8.27598 2.82116 -0.708559 0.244103 1.81973
703 1 2.76292 7.56493 2.91741 -0.320516 0.0610898 0.434999
958 1 1.70865 8.96753 2.14408 0.267901 1.28155 -0.240241
844 1 2.03439 8.09121 1.74695 0.537652 -0.718623 0.268784
839 1 4.4466 8.18105 1.59297 0.598747 1.58238 -0.52599
217 1 3.33955 8.06836 1.96275 -0.440459 -0.456452 0.224011
873 1 4.2682 8.83806 2.38818 0.0161684 -0.171715 -0.890534
562 1 3.01178 8.5946 2.90348 -1.95159 -0.473515 0.358164
854 1 4.20262 7.5545 2.34381 -0.657584 -1.02033 -0.280909
1202 1 5.4895 8.99952 2.69678 -0.40744 -0.545921 -0.0768665
1151 1 5.43638 8.1235 1.68107 0.182955 0.795623 -0.899563
109 1 7.01286 7.93707 2.89086 0.462508 1.69315 -0.698949
1133 1 7.11297 8.62619 1.73938 0.33091 0.845109 1.2842
243 1 8.05979 8.11218 1.58132 1.6379 1.33807 -0.579653
404 1 7.82854 8.65739 2.62113 -0.585598 0.0659408 -0.923366
910 1 8.88688 7.99338 2.55104 -2.2299 -1.55119 -0.62596
857 1 9.54492 8.45072 1.5502 0.273667 1.17365 -0.551667
657 1 10.0839 7.95672 2.56202 -0.481777 0.807142 -0.849355
635 1 10.4304 7.87084 1.63723 -0.791454 1.94755 0.716909
677 1 11.0218 7.88533 2.40713 1.04378 -0.0841405 2.66525
427 1 11.9391 7.64033 1.95474 -0.634462 -0.722844 -0.126076
1027 1 11.0274 8.76764 1.8414 0.690382 1.92847 -0.218726
730 1 0.783281 10.3139 2.21763 0.582741 -0.0672827 -0.511503
358 1 0.994409 9.22316 2.81502 -1.866 0.486218 -1.01936
821 1 2.35526 9.74867 2.51855 -1.27691 -2.19096 -0.335093
1089 1 3.4917 9.5221 2.24937 -0.562291 -1.86773 -0.506079
912 1 5.84827 9.71102 1.91602 -0.659375 0.309042 -0.980615
310 1 4.89633 10.2892 1.73192 1.63953 0.780701 -0.00152804
18 1 5.37984 10.4234 2.65483 -0.516852 1.09301 0.832573
1067 1 4.65198 9.64251 2.99929 0.358545 2.03753 -0.442168
1366 1 6.83923 10.0237 1.64392 1.66526 0.727398 1.95991
476 1 6.31701 10.0517 2.99007 -0.143663 0.0761939 0.198637
230 1 6.76051 9.1231 2.56495 -0.933316 -1.08803 0.530799
65 1 8.93326 9.08526 2.256 -0.990542 1.09444 0.438039
564 1 8.89179 10.2113 2.70874 -0.0507109 0.420077 0.380204
507 1 8.04024 9.65143 2.29512 1.97255 -0.611399 0.19595
1052 1 10.0597 9.03768 2.18706 -1.34815 -0.220319 0.920186
1315 1 9.74168 10.0769 2.10302 0.778893 -0.84551 -0.0599988
428 1 10.9273 9.79681 2.2249 -0.439659 0.569676 0.398524
164 1 11.9661 9.43855 2.33813 0.0766967 1.66512 0.375011
621 1 0.150367 11.4397 2.43299 -0.486527 0.4721 0.446784
67 1 2.92644 10.578 2.10256 -0.349406 0.0441795 1.78878
312 1 1.91075 10.7151 1.54769 0.37648 -0.654761 0.881555
401 1 2.9158 11.448 2.78935 0.798391 -0.154788 0.0957107
330 1 1.66826 11.1009 2.77747 -1.0204 -1.61039 -0.457863
98 1 3.97541 11.4589 2.90469 -0.950488 1.22495 0.202069
298 1 4.13533 10.5317 2.54984 -0.740408 1.30196 -1.00133
1252 1 3.33171 11.5349 1.8877 0.000310162 -1.11484 -0.227212
959 1 4.09409 10.9265 1.52533 -0.46781 -0.561316 -1.50124
245 1 4.97118 11.4491 2.06203 0.486852 -1.81918 0.40102
586 1 6.07597 10.9703 2.1928 0.0948204 0.770911 0.237806
1346 1 7.01136 10.7305 2.40933 0.331664 -1.03846 1.26575
197 1 6.73929 11.7231 1.74153 0.0335215 -0.746173 0.0232621
647 1 7.81753 11.6331 1.79864 0.21656 -0.789478 1.1969
708 1 7.92801 10.615 2.07091 1.43143 -1.25048 0.135145
94 1 10.1142 11.222 1.87464 -1.29109 1.41858 0.864785
922 1 9.03538 11.6221 1.74335 0.210937 -0.0138816 -0.251814
802 1 9.99569 11.8714 2.55796 -0.290487 -2.14741 -1.46329
114 1 9.73422 10.9242 2.87095 -0.884079 -0.89356 -1.01181
407 1 10.6937 11.1805 2.74316 -0.0858417 1.52388 -0.153442
1114 1 11.2853 10.8766 1.88267 0.0792539 -0.888852 -1.1469
743 1 0.965527 1.09984 3.95206 -1.66058 0.401669 1.82924
1071 1 2.52259 1.09228 4.08208 -0.660119 1.2181 -0.948321
773 1 1.51105 0.497271 3.20384 0.414131 0.539882 0.255365
640 1 2.68519 0.432774 3.1422 -0.30616 -0.618473 0.318336
1120 1 4.28775 0.91397 4.4674 -1.30442 -0.534633 -0.710838
91 1 3.54585 0.713973 3.75983 0.808648 1.23105 1.75189
353 1 4.50157 1.34508 3.14803 0.421519 1.3343 0.486428
717 1 5.3262 1.25926 3.82548 0.861346 0.313176 -0.31097
823 1 4.70897 0.316435 3.48762 1.77114 0.605157 0.394917
1320 1 5.9491 0.312831 3.59176 -0.679086 -2.45536 -1.74417
1265 1 7.04226 0.373501 3.20651 -0.435196 0.28616 -1.18885
82 1 6.69157 0.405813 4.42363 -0.650155 0.213436 -1.9301
694 1 8.72346 0.837389 4.02643 -0.544451 0.439604 -0.655013
134 1 7.78419 1.28213 4.37545 -0.396599 0.0366106 0.847865
1037 1 7.77001 0.333622 4.12142 -0.80457 0.18704 -0.450924
1081 1 9.89687 0.89109 3.50964 -1.26645 -1.25025 1.39437
316 1 11.8914 1.3447 4.20638 -0.665593 -0.88308 -1.83984
339 1 10.6634 1.43272 3.32203 0.326855 -0.230474 0.397568
46 1 11.8152 0.474519 3.67599 0.0635165 0.40957 1.18753
1322 1 10.79 0.256216 3.04621 -0.0128663 -0.862399 -0.5147
765 1 1.19624 1.79739 3.20687 -0.753956 -1.26332 -0.36344
430 1 0.297062 2.46696 3.09946 -0.912427 0.0596012 0.21456
106 1 0.444073 2.24983 4.25766 0.0501891 0.604389 -0.906301
950 1 1.76656 1.82905 4.10596 2.02229 -0.472939 -0.0509247
698 1 2.79516 2.05898 3.58887 -1.29399 -0.37088 1.3438
214 1 2.1641 2.80773 3.8107 -0.415253 0.821496 -0.107983
470 1 3.85863 2.28871 3.20984 0.325782 2.16956 0.905877
20 1 3.77205 1.86137 4.22495 -0.413075 0.80904 -0.216697
909 1 5.55226 2.88431 3.65727 0.230338 -1.51551 0.0836122
1360 1 5.9322 2.227 4.38262 0.900375 0.168567 1.18069
160 1 4.71482 2.43159 4.17629 0.788441 -0.968487 1.1322
1275 1 6.7291 2.93299 3.58964 0.105249 -0.312093 -1.0258
1334 1 7.13405 1.52167 3.47895 0.849701 -0.0119424 0.957828
627 1 8.37828 1.51406 3.18394 -0.191082 0.55994 0.429714
329 1 7.68645 2.34876 3.95978 -1.08498 -1.35999 -3.30161
770 1 8.63372 2.6458 3.17454 -0.228217 0.156177 -0.297321
193 1 8.73605 2.05388 3.97623 -0.281877 2.37568 -1.68588
639 1 9.89951 2.21267 3.49973 0.576257 -1.38861 -0.595638
610 1 10.2538 2.75535 4.35463 1.10972 -0.700612 -0.875814
90 1 9.71481 1.61476 4.44585 -0.803968 -1.29375 0.799591
865 1 11.3271 2.30298 3.57382 -0.838287 0.39919 0.162268
1046 1 1.26185 3.02145 3.30451 -0.242564 1.0376 0.478986
335 1 0.776285 3.67052 4.47035 0.287843 -0.471082 0.00160458
305 1 1.04931 4.15329 3.138 -0.170891 -0.503096 0.614502
254 1 1.87445 3.87734 3.74972 -0.96001 1.14708 -0.323186
93 1 2.78213 3.48907 4.23942 -0.676181 -1.09311 -1.22191
1290 1 2.79684 3.12921 3.07501 0.8629 1.82519 -0.687226
928 1 4.23902 4.46645 3.06257 -1.1939 0.054997 0.648076
431 1 3.18958 4.12475 3.52382 0.459652 -0.574707 -1.00666
1313 1 4.47188 3.13941 3.24294 1.11815 0.989158 -0.0287815
1375 1 3.97949 3.62783 4.22025 -0.780125 -0.0965548 0.53498
972 1 5.05542 3.72848 4.0726 -1.59008 0.392199 0.0301498
178 1 5.5142 4.15493 3.12114 -1.49679 0.641532 -1.72629
687 1 5.61395 4.47621 4.41739 0.525235 -1.6721 0.643674
784 1 6.22831 3.80039 4.05444 -1.03258 0.0324298 -1.07777
272 1 6.85946 3.94951 3.21388 -0.0360101 0.274432 -0.56015
653 1 7.89898 3.36904 3.47909 0.530778 -0.572401 -0.18947
613 1 7.5066 4.25231 4.03863 -0.210695 -0.926962 0.465519
1137 1 8.52836 3.2371 4.48626 0.520605 -0.55301 0.715662
570 1 8.51928 4.19871 3.47854 -0.068893 -0.529054 -1.3367
356 1 10.3154 3.36472 3.21246 1.55307 -0.734963 -0.280379
275 1 9.4847 4.14554 3.32136 1.0732 -0.521547 -0.17266
1326 1 9.12217 4.25039 4.47132 -0.0244297 -1.8663 -1.11224
1110 1 9.33004 3.21915 3.85518 0.271303 0.322064 1.17375
1117 1 11.0332 4.08587 3.31286 1.53458 0.879487 0.796105
866 1 10.9827 3.44843 4.1166 1.02784 -2.12153 2.1018
290 1 11.9702 3.28416 3.78928 0.704201 0.981477 -1.99997
171 1 1.34521 5.38092 3.33245 -1.70719 0.11844 0.210565
1109 1 0.994178 4.6875 4.06769 0.586238 0.561195 0.952098
741 1 0.163893 5.08485 3.64826 -0.719312 -0.311907 -0.609316
119 1 2.14226 5.00887 3.9083 0.191598 0.685957 -0.854144
363 1 3.00499 5.46949 3.47743 0.869506 -2.33518 1.29873
819 1 3.65466 4.8273 4.21884 -1.29937 0.573997 -0.603981
161 1 4.15604 5.47627 3.47931 -1.12786 3.22739 0.703267
692 1 3.97658 5.91836 4.48654 0.947075 1.41175 1.51777
1139 1 5.03745 5.82377 4.29239 0.635295 -0.807631 -0.609779
1226 1 5.57802 5.47758 3.37809 0.0671527 0.670331 -0.553312
1273 1 4.6572 4.70102 3.98449 0.705189 0.558705 -0.160962
139 1 6.9315 5.23766 3.15931 0.389959 0.246234 -0.381387
517 1 6.17223 5.34184 4.22932 -1.78337 1.17925 -1.28345
960 1 8.25543 5.3428 3.07517 -1.41566 0.232569 -0.182153
1223 1 8.00958 5.16784 4.1404 1.51379 0.0917801 0.111803
300 1 10.3075 4.85109 3.00855 0.287708 -1.38662 -1.68094
1264 1 9.29339 5.23908 3.60102 -1.84431 -0.18559 -0.447677
198 1 10.202 5.10075 4.09962 -0.478062 -2.59446 -0.209831
780 1 11.1783 4.94047 4.00907 0.975158 0.202775 0.70863
115 1 11.9335 5.90694 3.03148 0.991281 1.51857 -0.657445
478 1 10.5298 5.83446 3.50043 -0.754789 -0.351149 0.514383
767 1 0.138541 7.36064 3.04759 0.749456 0.232429 -0.252952
731 1 0.835331 6.43467 3.51159 -1.47183 -1.1279 0.412652
1269 1 0.0556749 6.01871 4.08627 1.05522 0.618497 1.89216
898 1 1.90836 7.23458 3.37512 -0.733279 0.0660898 -0.940356
775 1 2.97503 6.15204 4.27362 -0.107373 1.07838 0.204262
1211 1 1.99346 6.22264 3.69246 2.35901 0.339152 0.577216
688 1 2.74481 7.21508 3.92419 0.462298 1.00836 -0.35173
525 1 3.66386 6.66576 3.39125 1.04302 -1.24275 -1.55526
555 1 4.48512 6.75856 4.10554 -0.684788 0.934929 0.876457
314 1 3.72205 7.31382 4.43904 -2.23334 -1.38739 -0.948965
212 1 5.62823 6.65122 3.81913 -0.670482 -0.480382 0.0122975
1160 1 4.92695 7.12111 3.21222 -0.644168 0.0775717 -0.929568
813 1 6.59072 6.30099 4.00801 -0.147104 -0.458668 1.34811
587 1 6.08292 7.40273 3.12558 0.670056 0.0669683 0.0589483
550 1 7.11814 7.10741 3.80241 -2.05398 0.649731 1.64702
441 1 7.63919 6.01129 3.58994 0.788217 0.946825 3.27637
584 1 8.80378 6.18098 3.37106 -0.229731 -0.711732 -1.12504
21 1 8.04837 7.10578 4.10907 -0.719359 -0.226782 -0.119037
141 1 9.13008 7.18717 3.3896 -0.0610702 -0.739377 0.427363
1248 1 9.77297 6.34406 3.94506 0.425947 0.556457 -0.491565
794 1 11.8448 7.17402 4.00291 -0.440811 0.765403 -2.51745
1246 1 11.0951 6.60004 3.66385 -0.403375 -0.781666 0.706614
195 1 0.394528 8.13533 4.19218 -1.76779 -0.534024 0.31264
322 1 0.175284 8.49011 3.13862 -1.88133 -0.684073 -1.17355
625 1 1.11454 8.75639 3.62126 0.231265 -0.715715 1.26988
1231 1 1.69126 7.55726 4.2825 -2.32996 -1.0887 0.529313
209 1 2.4654 8.1981 3.80778 -2.12604 -0.43607 -0.858746
1194 1 4.3711 8.82666 3.64113 0.0762723 1.42921 1.76471
1381 1 4.04167 7.67386 3.2863 0.245111 0.453144 -2.27824
566 1 3.66052 8.20172 4.15081 1.41905 -1.29199 -0.080279
52 1 5.00394 8.13468 3.03228 -0.722848 1.28067 -0.47674
1324 1 5.70138 7.63719 4.44357 -0.509175 1.64457 0.997494
810 1 4.65848 7.87655 4.31288 1.46001 0.991514 -1.65191
567 1 5.63105 8.64723 3.78549 -0.095223 0.404813 -1.92845
911 1 6.58726 8.08153 3.94727 0.383421 0.577996 -0.138651
696 1 8.12851 8.12619 3.466 -1.54668 -0.447613 -1.58796
292 1 8.22757 8.99574 4.35051 0.835613 0.489719 -0.982838
469 1 7.55928 8.0165 4.35072 -1.03743 2.01233 -0.420735
976 1 10.4429 7.53219 3.86089 0.0663519 0.00875956 -1.76298
1142 1 9.47839 8.37608 3.31257 -2.24258 -0.54008 -0.0376345
189 1 10.3849 8.88028 4.11469 -0.915316 -1.3655 -0.081821
824 1 9.21357 8.64644 4.32421 0.864914 -1.81009 0.477266
908 1 11.2229 8.32794 4.10285 -0.762758 1.30823 0.21598
1103 1 10.7874 8.7252 3.00947 0.537772 -0.301959 0.247606
979 1 0.730716 10.3128 3.91093 -0.900033 1.73642 1.568
213 1 1.11862 9.35053 4.47456 -0.0889325 0.350294 -2.18736
234 1 2.10043 9.0361 3.47547 -0.470555 -0.586435 1.40326
147 1 1.51367 10.0407 3.03005 0.535416 0.402181 -1.69073
726 1 2.49725 10.1705 3.74365 -1.04715 -1.00772 -0.0701688
1038 1 3.75203 10.4583 4.20902 -0.0965467 0.614128 -0.217094
380 1 3.06631 9.08753 4.10992 0.637048 0.834301 0.0910812
1212 1 5.48971 9.64544 3.64534 -1.41347 0.0203302 0.77191
1358 1 7.3104 9.05312 3.76772 -0.578443 -0.261587 2.84214
258 1 6.788 10.3684 3.88997 0.585011 -2.27831 -0.120199
207 1 7.33526 9.86981 3.10719 0.166296 0.037233 0.141425
32 1 6.39138 9.28341 4.06522 0.107562 0.0603332 -0.558263
326 1 8.54515 9.17699 3.26059 0.751798 -1.31768 0.41133
1227 1 8.10903 10.2405 3.68909 -0.431019 -1.1339 -0.189693
190 1 9.71713 9.60697 3.03032 -0.186096 1.10481 -0.791004
991 1 9.09419 9.62829 4.02686 0.204834 -0.652378 -0.269553
868 1 10.7991 9.73439 3.67436 0.514611 0.670164 -0.776373
59 1 11.9176 9.18858 4.22592 -0.0663554 0.271538 0.1244
259 1 11.5283 10.3322 3.01442 1.50977 -2.42233 0.207471
863 1 0.760634 10.8473 3.06157 1.03921 -0.817982 -0.671474
352 1 0.571704 11.3723 3.82216 -0.413329 -1.13389 -2.02772
280 1 1.87542 11.9532 4.04697 0.196745 -0.801963 0.623738
889 1 1.62486 10.9658 3.82834 0.618667 0.17104 -0.586975
1007 1 2.98895 11.314 3.95973 0.101199 1.52719 0.174915
511 1 3.37339 10.5863 3.28441 0.538027 -0.450679 0.177121
522 1 3.92017 11.8014 3.9647 -0.629394 0.0178766 -0.520053
33 1 4.82504 11.3493 4.17994 0.382638 0.121142 -0.759873
1184 1 4.64041 10.6935 3.46071 -0.899295 -0.000822297 -1.47806
157 1 5.4899 11.4641 3.08294 0.49355 0.116555 -0.728483
589 1 5.56584 10.719 3.90622 -0.569283 2.83262 -0.11676
740 1 6.77233 11.3895 4.1278 0.397442 0.536888 1.16851
634 1 6.45408 11.1639 3.19023 0.953134 0.221951 -0.366631
755 1 7.4668 10.8748 3.36845 -0.0887987 -0.0167924 -0.089509
957 1 8.20374 11.6311 3.35558 0.0709497 1.52509 1.2055
1382 1 7.88812 11.0869 4.25337 0.927627 0.237436 0.511705
1094 1 9.44038 10.6823 3.9714 -1.02083 -0.577182 0.463603
646 1 10.3853 11.7372 3.92568 -1.36142 0.886969 -0.0287341
1058 1 9.2012 11.8365 3.44462 0.909832 0.505983 1.99246
669 1 11.5699 11.2665 3.34925 -0.744266 1.01011 -1.84877
76 1 11.6075 11.6867 4.29023 -0.0117803 -1.74587 -0.437995
1369 1 11.6169 10.5574 4.35665 -1.75174 0.712352 -0.792649
1370 1 10.5974 10.7717 3.80004 -0.487766 -0.226834 0.0296624
611 1 0.845913 1.08447 4.98054 1.05086 -1.21022 1.62255
585 1 0.630926 0.12285 4.55913 -1.50318 0.661966 -0.61148
1013 1 1.26518 0.32752 5.78422 0.292964 -0.314991 -0.30561
676 1 2.03768 0.599211 5.03848 1.81365 -1.61887 1.00756
1305 1 2.74887 1.15749 5.93201 -0.710802 -0.743256 0.232665
1254 1 3.01436 0.318321 4.64959 -1.40913 -0.696756 0.772689
333 1 3.50721 1.28236 5.20613 2.53917 -0.353705 0.605821
410 1 3.71983 0.436135 5.62865 -0.412305 -0.253725 0.557705
756 1 5.56183 0.842179 5.94113 -1.9174 -0.0538974 1.1185
605 1 4.59032 0.970422 5.7181 0.533835 -0.589165 1.19443
826 1 5.04331 0.166047 4.884 0.902027 -0.130154 0.222457
128 1 6.79403 0.664867 5.53951 0.299406 -0.25314 -0.22201
142 1 6.78361 1.371 4.65667 -0.0508236 -0.927046 -1.36288
1112 1 8.75955 1.4949 4.98931 -0.214493 1.34531 -1.01514
601 1 7.76742 1.44999 5.40812 -0.140834 -0.534931 0.591243
738 1 8.25662 0.460532 5.02322 0.692909 -1.59708 0.465248
1074 1 10.3834 0.869945 4.57641 0.832173 0.245042 1.41842
544 1 9.5175 0.319737 5.13836 -0.969401 1.31806 0.982755
263 1 9.89564 1.22554 5.74129 -1.029 -0.818375 0.7358
806 1 10.6687 0.0743866 5.24875 -2.18972 -0.839455 -0.364079
761 1 11.3853 0.625596 4.79647 -0.701731 0.383201 0.862784
468 1 11.1268 1.37992 5.82954 -1.10218 -1.50897 -0.625388
440 1 11.8385 0.58329 5.93384 0.664621 -0.0854065 1.00835
838 1 1.17264 2.73512 4.8159 -0.228425 0.705922 -0.278787
366 1 0.119849 2.98675 4.86698 -0.27415 -2.62762 -1.2192
1043 1 1.55638 1.85718 5.48612 -0.848108 -0.34557 -1.29364
436 1 2.51341 1.90468 4.94426 -1.00018 -1.0827 0.67451
45 1 1.73038 2.89995 5.64847 2.02049 1.36778 0.230814
276 1 3.33317 2.66212 4.72121 -0.461906 1.03319 -0.481646
1344 1 4.3428 1.95012 5.26407 -1.55441 1.7849 0.480907
543 1 3.25951 2.22339 5.79511 1.21557 -1.77994 1.05843
1057 1 5.39475 2.02111 5.88709 1.60848 0.605262 0.21162
968 1 5.20393 1.69934 4.76911 0.454862 -0.0509131 -0.556075
1258 1 5.31645 2.98272 4.75799 -1.13067 0.374812 1.46538
618 1 6.8534 2.53024 4.70297 0.498158 0.199413 -0.537779
683 1 6.22038 2.86214 5.58209 -0.438695 2.80474 0.0859691
155 1 7.15263 2.30352 5.91214 1.53761 -0.473932 -2.62853
393 1 6.30346 1.60255 5.72917 0.83755 -0.402525 -1.34535
1280 1 8.03777 2.4711 4.88678 1.37113 0.653278 1.3857
573 1 7.98396 2.84675 5.98426 1.13623 -0.321756 -0.915789
418 1 10.0753 2.1745 5.36041 -0.386146 -0.0350764 0.0210303
107 1 9.19055 2.54384 4.74546 -1.31194 0.54702 0.741758
1213 1 9.17555 2.4318 5.95305 0.20056 0.269077 -2.05174
1210 1 10.838 1.89249 4.51384 1.54847 0.392348 -0.455877
332 1 11.0324 2.66147 5.34368 1.29566 -1.03751 -1.069
706 1 11.9049 1.94109 5.23157 0.324494 -0.894763 0.767369
177 1 11.987 2.83055 5.85882 1.18971 1.36815 0.776621
73 1 0.425124 3.75528 5.54032 -1.30243 -0.264417 0.505861
643 1 1.20949 4.45848 5.09037 1.67004 0.463403 -0.972824
163 1 2.48834 4.41014 4.6814 0.9057 -2.08197 -0.0456957
1361 1 2.86219 3.15098 5.88835 -1.97524 0.907427 -0.0563921
952 1 1.82137 3.61094 4.84974 -0.284108 0.512417 0.916126
666 1 2.91775 4.37138 5.81528 0.972925 1.13445 -0.32504
14 1 4.43083 4.30038 4.98874 -0.943203 -0.0325054 -0.851445
1153 1 4.24156 3.05248 5.03597 -1.08664 -1.49186 2.32527
689 1 3.29624 3.84253 5.02967 -1.72193 -0.192385 0.780148
1090 1 5.27817 3.42578 5.89247 1.04858 0.606012 0.0160973
739 1 5.26733 4.4629 5.76704 -0.0455671 1.35281 1.42754
1128 1 5.97926 3.89397 5.18161 0.154022 -2.03412 0.150442
629 1 7.20745 3.45058 4.61364 -0.713762 1.29801 -0.617582
1316 1 6.99698 3.53395 5.75187 -2.97274 0.228746 0.510797
320 1 7.01779 4.44001 4.94303 -0.787167 -0.332193 0.164863
1154 1 8.80145 3.38326 5.50017 -0.449079 0.194838 -0.246218
843 1 8.02384 3.97778 5.17561 -1.39044 0.4072 -1.58098
1044 1 8.73784 4.29796 5.98572 -0.234572 -0.44096 -0.613526
776 1 9.89026 3.16716 5.44248 -2.09677 0.775342 0.253286
162 1 10.0368 3.91052 4.70498 -0.0706576 0.531098 1.36349
423 1 11.8445 4.19886 4.52044 -0.405829 0.847525 0.861722
619 1 11.0665 4.14242 5.15495 -0.229297 0.893884 0.196809
11 1 0.230268 5.00682 5.88058 3.15828 -1.00666 0.0553362
527 1 0.610136 5.44631 4.8735 -0.279146 1.86111 -0.0239304
1314 1 1.08665 5.86661 5.7837 -1.29638 -0.131088 0.509334
782 1 1.75745 5.46151 4.77205 0.14595 1.0452 1.47799
1347 1 2.65371 5.2826 5.13088 -0.775141 -2.1558 -0.772333
984 1 1.97669 4.85215 5.69675 1.73891 2.35912 1.16706
169 1 3.68074 5.10958 5.13893 0.476104 -0.0227091 0.289822
205 1 4.20893 4.77646 5.94742 1.73066 -1.54694 -1.09991
1002 1 4.10211 5.76666 5.81321 1.05402 -0.0711099 -1.71294
575 1 4.97543 5.3869 5.3161 2.33214 -0.501243 0.754331
834 1 6.08811 5.05709 5.20686 0.700278 0.908311 1.70743
297 1 6.92675 5.71393 5.19225 -0.698938 0.950716 -1.13274
1032 1 8.4184 5.06139 5.13275 1.4629 -1.14686 0.392443
1011 1 7.54827 4.86498 5.72651 0.978239 -0.638834 1.44747
888 1 8.34963 5.64274 5.96964 -0.891214 1.14582 -0.398752
580 1 10.482 5.13713 5.11569 -0.465897 0.178382 -0.812509
746 1 9.49868 4.71008 5.28473 1.81097 0.099654 1.83867
496 1 11.4959 5.12743 4.92864 -1.4377 0.705062 1.18809
752 1 11.0642 5.05506 5.91213 0.235124 0.28212 -0.538173
484 1 0.910504 6.62032 4.65984 0.229792 -2.06961 -0.801008
95 1 0.311262 6.83168 5.61926 -0.368499 0.875176 0.131062
1134 1 2.12793 6.61793 4.61131 0.154199 0.904935 -1.58286
77 1 1.59987 6.94092 5.42697 -1.54853 -0.505705 0.86889
513 1 2.75822 7.40701 5.18249 1.0967 -0.927838 -0.18454
374 1 2.15094 6.05626 5.68554 0.930339 -0.524419 1.24828
1230 1 3.24972 6.24596 5.4121 -0.315429 0.395629 1.65476
1209 1 3.83404 7.04001 5.72656 -0.332139 -0.919866 -1.02048
1225 1 5.91371 6.05324 4.98823 0.735434 1.40869 1.3427
227 1 4.71243 6.42891 5.07362 0.704213 0.27782 -0.400838
877 1 5.92658 7.272 5.3438 1.34402 0.527435 1.94865
1259 1 4.96023 7.11526 5.75695 0.480318 0.397278 0.101108
602 1 6.89654 6.73399 5.09545 -2.07682 -0.0330967 0.341052
255 1 7.54744 6.18641 4.61783 0.986657 -0.56355 -1.01364
268 1 8.07868 6.88591 5.20871 0.256899 -0.0462106 -0.140973
893 1 8.5614 6.00983 4.94829 0.192939 -0.382562 0.290059
308 1 9.20391 7.17565 4.7523 -0.464742 -1.01968 0.189975
435 1 10.0125 7.09744 5.45113 -0.845509 1.07543 -1.2557
47 1 10.496 6.66406 4.59567 0.113758 0.982176 -1.05583
905 1 9.83488 6.02782 5.23964 1.13272 -0.427098 -1.02295
651 1 11.0749 7.13551 5.53862 -0.456477 0.396242 -0.71303
1319 1 11.0204 6.031 5.49608 0.384134 1.54867 -0.755921
615 1 11.6597 6.58489 4.82786 -1.11177 0.00296862 -0.391869
126 1 1.41586 8.0427 5.01197 -1.78523 -0.658997 -1.08665
1076 1 0.550693 8.81654 5.24533 -0.549808 0.361299 1.41341
955 1 0.614625 7.79264 5.42149 -1.39666 -1.51132 0.952775
1325 1 2.9011 8.33927 4.80768 0.664541 0.00663937 -0.247102
787 1 2.17054 8.97897 5.03521 -0.42023 -0.0341871 -0.674902
180 1 2.28449 8.08047 5.85068 0.210454 0.185474 -0.8016
1175 1 3.31981 8.18261 5.85767 0.854357 1.51677 1.09093
644 1 4.10836 8.36637 5.09386 0.0345286 1.70509 0.633165
1352 1 5.18403 8.3978 5.43276 -0.64645 0.253088 0.229604
373 1 6.77497 7.67533 4.97701 0.0933534 -0.674065 0.665355
859 1 7.06494 8.93141 4.77069 -0.517368 0.814565 -0.117948
48 1 6.177 8.40823 5.40131 -0.146971 -2.01732 0.523155
7 1 8.46319 7.9168 4.6789 -0.658284 0.729886 -0.474716
774 1 7.57819 7.90431 5.5241 -0.250903 1.05715 -1.2625
149 1 8.99933 8.23986 5.70362 -1.36878 0.87711 -0.931097
995 1 10.2977 8.0526 4.802 -0.784501 -0.610084 0.680572
1257 1 9.92971 8.92214 5.17309 2.02592 -0.594817 -2.30275
170 1 11.711 8.10232 5.0274 2.38624 1.21134 -0.371722
288 1 10.9465 8.73776 5.44594 1.20351 -0.847699 -0.490497
51 1 0.307452 9.90928 4.89363 1.85073 1.62619 -1.22136
943 1 0.399339 10.3867 5.85695 0.797001 -0.704056 -0.50888
897 1 1.49197 9.61471 5.51758 -1.28143 0.666724 0.562145
1003 1 2.86444 9.97836 4.83747 -1.92629 0.404602 -0.915561
1102 1 1.90817 10.0883 4.62258 0.278154 0.494109 -1.51907
136 1 3.94538 9.44753 4.87782 -1.71021 2.101 1.44412
417 1 3.09561 9.22116 5.59967 1.14614 0.542488 -0.905838
1155 1 4.06963 9.16528 5.9154 0.28531 -1.8418 0.405474
324 1 4.07934 10.4879 5.37112 -0.753273 1.45987 -0.0941005
420 1 5.04275 9.20543 4.52769 -2.44798 -0.270406 -0.196812
1083 1 4.82188 10.2775 4.62582 -0.889239 -0.925587 -0.0878841
1335 1 5.12872 9.38824 5.8162 1.16143 -0.323609 0.145506
148 1 5.64709 10.3841 5.58672 -0.237415 -0.179591 -0.335005
534 1 7.4965 9.90151 4.51427 -0.5438 0.0723132 0.650033
559 1 6.57572 9.60777 5.35853 1.01057 -0.0377251 -2.48298
825 1 6.05899 10.045 4.68072 1.63204 1.0995 -0.296717
1262 1 8.7185 9.16669 5.19874 1.51456 0.393911 0.459076
3 1 8.74983 10.428 4.81654 -0.93786 -0.688522 0.0826895
111 1 10.1576 10.0321 4.54614 -0.980714 1.53344 0.334647
315 1 9.54353 9.95637 5.62236 -0.35626 -0.905477 0.526408
659 1 11.0809 9.87019 4.62808 -0.869219 1.51919 0.807404
34 1 10.5501 9.75782 5.49841 -0.835906 -1.74904 -0.389465
667 1 11.6091 9.57862 5.59486 -1.11969 -1.41959 -1.00271
1156 1 0.423251 11.0727 4.90872 0.407239 0.288073 0.396173
386 1 1.38674 11.581 5.01442 0.0377208 0.684066 0.305052
226 1 1.32039 10.6448 5.46072 -1.97057 1.52988 0.636812
763 1 2.30674 10.6788 5.76806 0.650981 0.00940568 1.36327
501 1 2.23964 11.0946 4.63933 2.33176 0.818511 0.00725916
319 1 3.06945 11.692 5.79437 0.578795 -1.33524 0.867162
116 1 3.18807 10.9481 4.93493 -0.221822 -0.499556 -2.02062
766 1 3.93347 11.5933 5.09691 0.0258723 2.14786 -0.169428
861 1 4.80857 11.1769 5.64191 -1.53533 0.130172 2.07165
867 1 5.90113 11.4352 4.61536 -0.561845 -2.59393 1.82735
537 1 5.78657 11.8135 5.72283 0.118569 1.33022 -0.512309
656 1 7.32199 11.8131 5.02804 1.00198 -0.982648 0.543059
962 1 6.77223 10.7042 5.0245 -0.459682 1.43793 0.676948
388 1 6.86877 11.5475 5.94895 0.232093 -0.689277 0.919612
357 1 8.66993 11.4835 4.59093 2.18686 0.359949 -1.5323
604 1 8.70209 11.718 5.95032 0.32194 -0.741026 -0.3147
154 1 7.65517 10.9945 5.58525 1.5964 0.358193 -1.10715
792 1 9.65353 11.4212 4.67585 -1.40627 2.42381 -0.416966
1008 1 9.16692 11.0103 5.49807 0.466598 0.821965 1.6392
713 1 10.2673 11.224 5.67144 -0.765113 0.089964 0.0938455
187 1 11.7247 11.7342 5.37124 0.204254 -1.14247 1.27454
901 1 10.7482 11.0114 4.7399 -0.399691 0.355345 -1.86039
293 1 11.4757 10.609 5.50065 -1.29811 -0.68539 -1.45991
948 1 0.365721 0.294565 7.02878 0.0397016 -1.2799 0.101831
921 1 1.29644 0.65701 7.42867 1.23069 0.707737 -2.71089
426 1 0.867133 1.10797 6.36205 -0.936185 -1.15606 -1.41978
359 1 1.93646 0.211054 6.73817 -0.435182 -1.18358 1.46242
1356 1 2.58507 0.858496 7.28938 -0.0791294 -1.71078 -1.19673
1199 1 1.87778 1.24895 6.32671 1.61601 0.0956905 1.3573
840 1 3.48023 0.62071 6.76453 -1.12576 0.708022 -0.711643
132 1 4.78335 0.13369 6.44393 -0.363015 0.310523 1.31717
822 1 4.93189 1.45608 6.74398 -0.033301 -0.345773 0.342816
744 1 5.83201 1.17226 7.00031 0.702492 1.39422 -0.839767
1340 1 6.55586 0.553517 6.51971 0.316851 0.908892 0.729908
120 1 7.3503 0.823402 7.18575 0.423653 -2.38226 0.72454
1232 1 7.23499 1.43449 6.36397 0.444051 -0.662261 0.602806
1345 1 7.87636 0.518979 6.33511 0.353545 -0.65018 0.948453
1082 1 8.7753 0.806463 6.05929 0.0973611 0.540509 -0.435163
456 1 8.92502 0.0465186 6.92963 0.500871 -0.925139 -1.53431
942 1 8.44805 0.935448 7.12045 -0.211899 0.117777 -1.12851
184 1 9.8761 0.717862 7.10807 0.831616 1.12856 -0.324406
327 1 9.6706 0.0282142 6.2414 -1.21695 -2.29741 0.0288281
896 1 10.8765 1.27489 6.92887 0.846952 -1.23022 -2.34813
750 1 10.5648 0.48138 6.20057 0.412792 3.08664 0.648085
321 1 10.911 0.281092 7.37826 1.8591 0.0978493 -2.02081
228 1 11.926 1.41987 6.8613 0.26559 0.00412134 0.99537
1300 1 1.41631 2.27084 6.53014 0.550972 0.265713 0.0785003
8 1 0.125298 2.49817 6.92308 -0.288159 0.602379 0.607967
313 1 1.21753 2.9159 7.28532 0.386196 1.8606 -0.236153
742 1 2.51695 2.45541 6.49078 -1.40422 0.898667 -1.10902
1163 1 3.98232 1.6069 6.29253 1.7923 -0.25413 -0.590344
716 1 3.1519 1.92623 7.29661 0.481047 1.76068 0.0384866
1147 1 4.17842 1.72811 7.35655 1.16063 0.245802 -0.635414
1164 1 3.66883 2.61234 6.7701 -0.0321126 0.764237 -0.640603
828 1 4.55586 2.66594 6.02645 0.845841 1.35409 -0.232518
238 1 5.4767 2.55278 6.86748 -0.379622 -0.729816 2.15682
351 1 6.36491 2.03563 6.71811 -0.701434 0.131584 0.0286462
996 1 7.14625 2.82175 6.84383 -0.590417 0.0225138 0.328031
1181 1 8.21045 1.92733 6.34745 1.45351 -0.444867 -1.46908
1293 1 8.99572 2.38988 7.1434 -1.26137 -0.8373 0.0248983
546 1 7.56634 1.89864 7.29846 -1.381 -1.15429 -0.190786
58 1 9.80814 2.87491 6.53652 1.2307 -0.305315 0.0815199
980 1 9.35722 1.56649 6.60984 1.03525 -0.126135 0.644351
622 1 10.5299 2.03094 6.28117 -0.0650902 0.941325 0.743382
1283 1 11.0381 2.78099 6.76706 0.514568 -1.05201 -1.17396
39 1 0.929643 3.25348 6.30928 0.00325536 0.399851 0.66314
336 1 0.4073 3.93768 6.88387 3.29286 -1.19863 -1.22818
1097 1 2.34092 3.41692 6.8899 -1.86315 -1.69541 -0.819655
1357 1 1.63694 4.05039 6.19713 -0.121654 -0.22836 0.219775
68 1 3.73919 3.68471 6.00073 0.863995 -0.695399 -0.0678044
124 1 3.72554 3.89623 7.3845 0.171241 0.873207 -0.39183
144 1 4.67663 3.47873 6.83609 1.06986 -1.18122 0.762055
725 1 5.55012 4.0859 6.71142 -0.644552 0.319365 -0.976814
1091 1 6.25256 4.44352 6.03806 0.65755 -0.988931 0.120909
222 1 6.28247 3.33915 6.60064 1.93509 -0.910007 1.46
852 1 6.60789 4.24099 7.27118 0.586667 1.41207 -1.52295
935 1 7.81162 3.92849 6.29588 -0.122458 0.709806 -0.60659
1066 1 8.76454 3.29922 6.513 0.466103 -1.33518 1.94165
304 1 8.98765 3.77032 7.46054 -0.206337 -2.2305 -0.486775
1317 1 8.0856 3.05566 7.20932 -0.746675 -0.524705 -0.997422
63 1 9.66219 3.97951 6.20773 1.37986 -0.975213 -1.16058
536 1 10.3991 3.5619 7.089 -1.3298 0.468106 -1.08045
818 1 11.6304 4.24333 6.11944 -0.216178 1.22666 0.475005
932 1 11.3247 3.81514 7.04491 0.844241 0.327177 -0.253779
247 1 10.6814 3.82544 6.04284 1.12286 0.0641646 0.556206
1087 1 1.16157 5.02974 6.62274 1.6796 0.781444 0.224767
152 1 0.168923 4.91088 6.91688 0.401448 0.567641 0.292887
917 1 0.641392 5.92734 6.70495 0.870908 -0.293171 -0.984602
81 1 2.98408 5.3937 6.28906 2.06837 -1.36962 0.478044
1141 1 2.99003 5.39761 7.38855 0.281616 -0.818044 0.496422
84 1 2.12032 4.70976 6.83338 -0.169334 -0.497381 -0.679492
583 1 2.11106 5.94313 6.80159 -0.891665 0.159214 0.549935
1029 1 4.47823 5.39222 6.75752 -0.607856 -0.889388 0.584738
1296 1 3.46936 4.71886 6.79776 1.40378 -0.12748 0.694739
836 1 5.86604 5.45085 7.31317 0.327191 -0.313058 -0.556973
1333 1 5.55611 5.24951 6.3099 -1.72858 -2.27819 0.395572
1288 1 6.55998 5.54188 6.32156 0.74674 1.2412 -0.828736
1234 1 7.3416 5.30638 6.94971 0.114285 1.44718 -0.713139
516 1 8.55871 4.68582 6.97346 1.62297 -0.0315247 -0.0502766
89 1 8.52717 5.56709 7.2829 2.43185 1.52493 1.02055
556 1 10.4105 5.74955 6.28394 1.55148 0.677135 0.708323
807 1 9.6012 4.58537 7.27381 -0.614042 -0.0907337 -1.60972
459 1 9.3973 5.15515 6.2218 -0.585919 -0.10679 -0.942934
451 1 10.0008 5.50913 7.40646 -0.990894 1.64451 0.708293
285 1 11.482 5.6226 6.9148 -0.641683 0.308847 0.236741
878 1 10.7279 4.89816 6.94988 -0.415514 0.747994 0.576065
1218 1 0.467947 7.14995 6.86154 1.75781 -1.33896 -1.7382
777 1 2.40385 6.98274 6.16046 -0.315962 0.891811 0.741097
817 1 2.13753 7.02818 7.31189 -0.0729901 0.750022 1.74259
200 1 1.5023 6.72775 6.54172 -0.579923 -2.09186 -0.128515
772 1 3.24028 6.48094 6.53517 0.964302 -1.49736 -1.12523
239 1 4.89021 6.32631 6.81989 0.510763 0.535482 -1.93925
1240 1 5.20344 7.29513 7.17861 -1.4151 -0.259851 0.247738
323 1 6.06627 6.60262 6.31692 1.26766 -0.0406648 0.801557
804 1 7.36325 6.06537 6.14518 -0.773144 1.82919 1.41301
663 1 7.04302 6.11472 7.46762 1.2614 0.549631 -2.22707
1130 1 7.26203 7.11432 7.14783 0.916409 0.0192376 1.28142
558 1 7.10514 7.10587 6.05586 0.774132 -1.05202 0.43061
649 1 8.08094 6.78549 6.37395 -1.46976 -2.40218 -0.962173
1279 1 8.16702 6.51968 7.34918 -0.296393 -1.54689 -0.317327
614 1 9.52958 7.40363 6.27205 0.862985 0.608068 -0.359594
257 1 9.29577 6.14648 6.21289 -1.4958 -0.456748 -0.0662019
121 1 9.75899 6.51318 7.08919 0.250222 0.843637 -0.712872
808 1 11.6217 6.71075 6.35872 -0.954015 -0.340462 1.34783
477 1 10.5682 7.24281 6.48023 0.219059 0.842839 0.774255
421 1 11.5386 7.45645 7.2153 -0.352451 -2.20794 -0.0239078
704 1 10.9114 6.43347 7.19435 -0.806535 -0.610222 -1.99101
286 1 0.399241 8.11521 6.42431 1.02069 -0.621851 0.2786
1111 1 1.34051 7.7588 6.36562 -0.852786 -0.609693 -0.739594
395 1 0.959364 8.4018 7.29314 -0.659888 -0.65566 0.434783
69 1 2.90343 7.5079 6.78787 -1.02769 1.39253 -0.35273
820 1 1.69713 8.94174 6.31137 -0.272333 -1.20098 0.937404
1285 1 2.68071 8.72273 6.95275 -0.7336 0.0764775 -1.09006
108 1 4.39747 7.62146 6.59838 -0.0449911 1.1191 -0.964941
1235 1 3.6869 8.67177 6.74651 -0.683157 0.043405 -1.13538
19 1 5.06436 8.32174 7.11955 1.54528 0.0937136 0.758476
552 1 5.85281 8.49726 6.45202 1.53236 -0.914981 0.423297
524 1 6.98778 8.63392 6.16627 -1.19006 0.942281 -1.65707
1056 1 6.54049 7.72224 6.5763 0.964584 -0.730501 0.155448
835 1 7.32333 8.45584 7.28575 0.461879 0.279106 -0.0322199
415 1 7.88712 7.8508 6.6239 -0.0810753 0.975742 1.242
606 1 8.74804 8.59041 6.93151 -0.483936 0.365805 0.388209
1332 1 8.18402 8.86305 6.11898 1.2013 -0.640842 -0.873462
685 1 8.85543 7.51687 7.37575 -0.0880023 1.08787 -0.906189
1165 1 10.234 8.34145 6.064 -0.701833 0.0221727 -0.349293
391 1 9.80346 8.3758 7.03738 -0.0626981 -0.980222 0.175215
1278 1 11.3543 8.08545 6.05739 -0.603803 -0.0684464 -0.15673
1220 1 10.847 8.39717 7.01797 0.961926 -1.36678 -0.463829
1023 1 11.9146 8.46728 7.44826 -0.425132 -0.835365 0.905447
24 1 0.231983 9.21756 6.36563 0.335255 -1.5117 -1.07483
301 1 1.37347 10.2986 6.48804 -1.97451 0.642038 -2.16275
710 1 0.637429 9.99632 7.35378 -0.171485 0.233736 -0.537976
406 1 2.45971 9.97491 6.57394 -0.64163 -1.53496 0.0614604
295 1 3.55489 9.74624 6.68501 0.767118 0.0396709 -0.708088
494 1 4.43207 9.20204 6.91264 -3.0103 -2.32424 -0.20618
1338 1 4.46255 10.278 6.36121 1.40438 -0.708517 -0.74157
1311 1 5.45001 9.9747 6.56711 0.0744991 -1.25908 -1.64357
1191 1 5.65162 9.22948 7.41769 -0.602644 -1.37791 0.876881
378 1 6.37229 9.52134 6.41508 0.236713 -0.897802 2.09585
1157 1 6.2192 10.45 7.12931 -0.188537 0.395505 -0.825162
384 1 7.30355 10.3479 7.06199 -0.160947 -0.63529 0.548756
1173 1 8.71753 10.4303 6.18908 0.29056 2.21125 0.0871655
847 1 7.58404 9.35538 6.8823 -0.820927 -1.91329 -0.297124
127 1 7.80621 9.96758 6.06004 0.987177 -1.1764 -1.2746
57 1 8.3562 10.3238 7.39741 1.34968 0.291817 -0.744345
1010 1 9.40852 9.04117 6.22441 0.821682 -0.358395 0.615419
117 1 10.2628 9.24996 7.29616 1.00778 0.351147 -0.200727
1237 1 9.84049 9.87209 6.58609 -1.2535 -1.75863 0.860208
1148 1 10.7974 9.25806 6.33393 0.475266 0.524435 -0.757693
1190 1 11.5178 9.83679 7.02739 -0.530208 -1.61588 -0.113277
42 1 0.846333 11.3872 6.1428 -0.0436707 0.0784988 0.128977
693 1 0.409185 11.2016 7.46972 1.16862 -0.133212 0.987847
939 1 1.40641 11.4818 7.3641 0.216158 -1.70962 0.268333
1200 1 2.18615 10.9065 6.92281 0.326013 -0.342531 -1.03633
375 1 1.80683 11.4662 6.0272 1.94275 -0.208869 -0.719998
652 1 3.90818 11.3474 6.10198 0.0618642 -0.304393 1.84796
274 1 3.2152 10.6588 6.20364 0.181208 2.1153 -0.979431
992 1 3.78794 10.9749 7.18015 -1.97243 -0.370693 1.90705
343 1 5.0087 10.5967 7.46152 -0.381197 2.67073 -1.07924
1292 1 5.06937 11.1987 6.71307 -0.0741872 -0.00560713 -0.0448477
291 1 6.15754 11.5418 6.81003 -1.44237 0.810615 -0.45166
397 1 6.59809 10.5072 6.07354 -0.226689 1.63094 1.04662
172 1 7.25516 11.5057 7.4469 1.34889 -2.88757 -0.743992
29 1 8.17522 11.1623 6.70623 0.720178 1.14828 0.948548
1145 1 9.92414 11.6861 7.43726 0.836634 -0.121729 0.388426
1039 1 10.0165 10.6558 7.18296 0.975076 1.05584 -0.897586
256 1 9.2735 11.0762 6.74968 3.01233 -1.03478 -0.73022
1021 1 11.6013 11.7846 6.51073 0.415979 0.942565 -1.6296
591 1 11.9229 10.7572 6.69741 -0.0223137 -1.41326 0.4267
1298 1 10.5631 11.5708 6.64869 0.26575 -0.415263 -0.795696
377 1 10.762 10.5288 6.28263 -0.958614 0.292501 0.249351
277 1 1.41648 1.21777 8.27451 -0.498568 0.415774 0.280673
1150 1 0.428136 0.648243 8.42392 -1.2078 -0.826693 -1.04037
574 1 2.05524 0.285724 8.00411 -0.495695 -0.613384 -0.124593
1004 1 1.57761 0.41858 8.91753 0.173879 -0.0524032 0.89115
1374 1 3.01924 0.528845 8.56068 0.696227 1.97201 -0.666418
1099 1 3.7814 1.17103 8.27721 0.349709 -2.88188 -1.12888
1267 1 3.87952 0.1505 7.61143 1.19004 0.589875 -1.38107
1012 1 4.25588 0.0894592 8.66567 0.763619 -0.968584 -0.360315
961 1 4.59649 0.863712 7.67373 -0.940015 1.91708 0.461883
1261 1 5.4291 0.660365 8.18743 0.788553 -1.35218 -0.394203
1028 1 4.72153 1.22486 8.92166 -0.0364111 0.335962 -0.864914
811 1 6.13624 0.216885 7.52075 0.554782 -0.106968 1.12131
754 1 6.31384 1.15376 7.95199 0.40707 0.321256 1.04415
62 1 7.19627 0.406737 8.38783 -0.554307 -1.11955 -0.577194
448 1 7.49389 1.31714 8.16925 -1.4308 0.343088 -1.38836
1302 1 8.19246 0.146353 7.80489 -1.96397 0.0367544 -0.410381
803 1 8.31135 0.927679 8.69401 -1.45862 -0.162582 -0.831607
450 1 9.52383 0.432922 8.19844 -1.00172 0.759638 0.00113582
1263 1 11.5338 0.59109 8.97551 -1.51184 -0.103801 -0.115731
135 1 10.6255 1.0748 7.97827 0.365116 0.467286 0.324148
899 1 11.6279 0.997315 7.83049 -0.24032 1.75765 0.124341
701 1 1.26908 2.27741 8.424 -0.231144 -0.109436 0.61697
711 1 0.628749 2.01571 7.61822 0.411301 1.07917 1.36119
409 1 0.182355 1.50363 8.94521 1.71057 -0.861601 1.13916
196 1 0.530611 2.71325 8.97817 -0.829383 0.167305 2.29568
1367 1 2.68605 1.62615 8.1989 0.493931 1.73951 -0.656285
284 1 2.88051 2.96293 7.58284 -0.707289 -0.146939 -1.70278
232 1 1.98052 2.0191 7.508 0.488703 -0.545828 0.910196
655 1 2.28699 2.491 8.43338 1.01235 0.877514 -0.0912571
281 1 3.61069 2.2958 8.14139 -0.000665513 1.1161 0.839048
486 1 4.39026 2.17494 8.87276 -2.13044 -1.31556 0.22731
309 1 4.71504 2.65156 7.52981 1.84195 2.19522 0.340366
251 1 5.15374 1.71902 7.83858 -1.27697 -0.475996 0.601615
22 1 5.76343 2.93743 7.81115 0.149899 1.12667 0.369838
830 1 6.67716 2.2284 7.72038 -0.540584 -0.181491 -0.582615
664 1 6.13359 1.60561 8.89143 0.0799273 2.80403 -0.490502
1342 1 6.81904 2.6412 8.87876 -0.171529 -1.28883 0.973849
103 1 8.3522 1.84018 7.93751 -1.4285 -1.84925 1.0445
1197 1 8.13578 1.95181 8.98436 1.78266 0.485563 0.412642
74 1 7.58812 2.64764 8.21397 -1.67876 -0.530382 0.227877
1098 1 10.0056 1.89247 8.07411 0.0377619 0.678365 -0.387937
705 1 10.0421 2.76417 7.58841 0.0593052 -1.43965 0.107603
560 1 9.75287 2.8006 8.68884 -0.080118 -0.903155 -0.637246
1241 1 9.11103 1.8963 8.57985 -0.669288 0.0553516 0.442404
260 1 11.0952 2.0404 7.57217 0.0392108 0.539701 -0.0776959
600 1 11.1413 1.64834 8.90354 0.893013 -0.630606 1.38688
1053 1 11.7685 2.35655 8.4626 -0.775901 -1.40904 1.15433
131 1 10.7561 2.51331 8.52364 -0.551591 -0.404959 0.88068
809 1 0.138659 3.02605 7.80713 0.812103 1.47621 -1.98119
791 1 1.24609 4.03418 7.6063 0.80243 -0.200083 -0.313903
941 1 0.569859 3.72176 8.52145 -0.0763073 -0.384889 0.0536722
202 1 2.70402 4.44719 7.83061 -0.130296 1.07977 -0.670752
858 1 2.01976 4.21376 8.57145 0.201662 -0.65943 1.93702
466 1 1.99736 3.48278 7.87673 -0.257653 -0.16578 -0.583757
242 1 4.34082 3.3914 8.23407 0.356656 1.00056 -0.311163
1368 1 5.23745 4.20402 8.73582 1.12263 0.847875 0.223296
1182 1 5.27202 3.95149 7.73056 -0.208989 0.202598 0.635267
457 1 5.29273 3.01187 8.66878 -0.138001 -1.35466 -0.448963
215 1 6.20797 4.28146 8.2669 0.186605 -1.62985 1.41844
1309 1 6.76074 3.36707 7.88267 -1.27182 -0.302219 0.576418
25 1 8.57876 3.02907 8.11155 0.137786 -0.664638 -0.744704
344 1 7.83936 3.72263 8.39138 -0.261587 -0.0943468 -1.74345
845 1 10.0083 3.87604 8.03048 -0.66644 -0.618078 1.10634
1064 1 11.166 3.62237 8.16229 2.42108 -0.232012 -0.227903
871 1 11.6566 4.48114 7.81821 0.402498 -0.583096 -1.01066
837 1 1.27573 5.89659 8.52979 0.884512 1.68834 1.03964
342 1 1.00101 4.8388 8.39758 -0.193227 0.150405 0.189841
146 1 0.189015 5.38881 7.83803 -0.718593 0.233317 -0.00878575
630 1 0.235735 5.6302 8.85419 0.246003 -1.54528 0.501468
472 1 1.59377 5.15868 7.62294 0.251695 0.409887 1.05313
509 1 2.40014 5.2222 8.46105 0.603942 -1.39709 1.1912
673 1 4.1687 4.97514 7.71502 1.45962 1.1574 -0.546105
786 1 3.43693 5.84718 8.34626 1.71881 0.507014 -1.02813
1005 1 3.52654 4.69555 8.58262 0.681452 0.161183 1.01529
988 1 5.12096 4.99174 7.93087 -0.303113 -1.1208 0.234845
379 1 4.71099 5.97755 8.21893 -0.605056 -0.0300836 -0.426991
480 1 5.6438 5.27138 8.88017 0.69621 -0.473656 -1.00053
971 1 6.62737 5.16694 8.02354 0.285799 -0.162652 -0.884295
1019 1 7.33182 4.73794 8.72938 2.17531 0.983454 0.7373
856 1 6.65915 5.78707 8.81969 0.351233 0.491248 0.571108
662 1 8.5047 4.57101 8.05038 -0.608347 -0.157308 -0.333726
337 1 7.5443 4.53508 7.66534 -0.0763345 0.414777 1.67006
101 1 7.87226 5.69422 8.01788 0.668405 -1.16289 0.293295
1168 1 10.1123 5.83866 8.59366 0.325173 0.274922 -2.10332
779 1 9.83232 4.88955 8.62579 0.43579 -1.88007 0.0762943
1140 1 10.7849 4.56126 8.40397 0.662508 -0.692149 1.01981
1104 1 11.0771 5.43486 7.96863 2.3649 0.382434 0.0543256
637 1 0.689729 6.38206 7.58985 1.25319 -0.117058 -0.176433
872 1 0.567989 6.77905 8.75076 0.341022 -0.0283217 -0.0346289
578 1 1.25661 7.43792 7.51379 0.857762 0.899186 0.39149
249 1 2.26619 6.19662 7.91615 -0.390952 -0.727238 -0.839472
447 1 2.37895 7.25428 8.86899 -2.04129 1.00281 0.43829
1054 1 1.63019 6.8883 8.25638 -0.47997 -1.28137 1.04695
1061 1 3.9758 6.63422 7.57772 0.0103239 0.478608 0.231045
1025 1 3.04934 7.15503 8.09816 1.20582 -0.545886 -0.759923
1122 1 3.91599 7.21553 8.67775 -0.795387 -0.356995 0.419583
183 1 5.31018 6.91606 8.18647 -0.429472 -1.37281 0.83965
1183 1 6.43346 7.02551 8.00693 1.98621 -0.583275 0.906912
53 1 6.04502 6.03999 8.02202 0.9845 1.29641 1.39771
38 1 7.43328 6.76109 8.88534 -0.906295 0.617897 0.963103
113 1 8.20484 7.31846 8.35648 -0.698891 0.366249 -1.34487
938 1 8.44223 6.41144 8.91561 -0.232102 0.687799 0.541097
250 1 8.97494 6.3026 7.97325 -1.43048 0.797642 -1.26736
1323 1 9.25932 7.32873 8.78161 -0.514041 0.00444198 1.02695
362 1 9.8127 6.8685 8.10447 1.11936 1.67427 -1.52163
493 1 10.5557 7.47498 7.59092 0.565829 0.691281 -0.0921388
97 1 11.7378 6.82133 8.05328 -0.627521 -0.402204 -0.745882
54 1 10.6615 7.129 8.59559 0.292099 -0.969918 0.119324
805 1 0.295048 7.60768 7.89858 0.640476 1.11141 -0.685882
347 1 1.39297 8.14252 8.54467 -1.89354 -0.0732495 -0.481245
1286 1 0.334273 8.68853 8.47781 -0.184299 -2.19244 -0.5233
411 1 2.22304 7.91427 7.85541 -0.830815 0.767355 -0.0335059
44 1 1.92628 8.94618 8.6415 -0.693583 0.779966 -0.302052
785 1 3.03392 8.8437 8.613 -1.1707 -1.07552 -0.370768
1073 1 3.46367 8.13237 7.7079 0.533675 0.127719 1.55052
174 1 4.38395 7.58835 7.79043 -2.01238 0.00238627 0.301734
638 1 5.95853 7.99608 7.60846 0.720758 -1.43046 -1.16708
145 1 5.07891 8.26811 8.53627 -1.03022 -1.12381 0.0728169
571 1 4.50791 8.65369 7.82943 0.472002 1.3821 -0.993248
1276 1 5.92857 7.78379 8.87353 1.10693 -1.86655 0.543835
1379 1 7.27194 7.74195 7.98051 0.886928 -1.23682 0.299495
936 1 8.62871 8.29256 7.97343 1.33785 -1.44827 0.136838
929 1 7.61934 8.72254 8.35202 -1.70468 0.107057 1.18761
732 1 9.63872 7.84245 7.92099 -0.836472 -0.0743402 -0.659545
231 1 10.4604 8.16169 8.36179 0.456621 -1.23333 0.306812
769 1 9.47312 8.33468 8.83861 0.12649 0.267416 -0.257436
70 1 1.29292 9.29969 7.68611 -1.77076 1.12585 1.27246
1093 1 0.778707 9.6517 8.8502 -0.373008 -0.705405 0.664503
1108 1 1.72399 10.1542 7.5131 -0.495864 -0.268352 -0.67789
607 1 1.66708 10.0622 8.45213 -1.88088 0.213705 -0.129709
1000 1 2.48311 9.51492 7.64905 -0.974976 -0.166877 0.465927
1107 1 2.59524 10.338 8.9371 0.98823 0.0203005 -0.387851
389 1 3.61711 9.17677 7.68165 0.48232 -1.37491 0.938997
1049 1 4.10729 9.99332 7.53114 0.99369 -0.644806 0.0540422
518 1 4.02862 9.01131 8.66918 1.03321 -0.282967 -0.433642
454 1 3.11192 10.4099 7.97816 -0.432886 -0.521888 -0.667794
718 1 4.84715 9.62059 8.16693 -0.714125 0.274636 0.218457
970 1 5.86726 10.099 8.07113 -0.672159 -0.583525 0.276361
946 1 6.03485 9.11512 8.53772 -1.01904 0.772954 0.225528
848 1 6.77933 9.47414 7.66086 1.29616 1.22398 -0.698827
617 1 7.64678 10.2969 8.36688 -0.510883 0.529834 1.09144
1188 1 7.5393 9.58234 8.99006 0.376379 -0.103695 0.0566479
709 1 8.20065 9.38095 7.78515 0.445637 1.30274 0.553196
369 1 8.53536 9.42146 8.79936 -0.344492 0.354919 1.3397
816 1 9.41914 9.98507 7.90305 0.275315 -0.761401 -0.893951
1306 1 10.0116 9.15612 8.36877 -0.651006 0.998331 -0.51927
875 1 9.12567 10.3498 8.87542 -1.30946 0.239554 1.19654
133 1 10.201 10.021 8.92329 -0.952479 -0.470915 0.82815
973 1 11.9881 9.52987 7.98183 -0.433283 0.27716 -1.30895
1282 1 11.024 9.04199 7.97944 -0.417707 0.932475 -1.95833
338 1 11.3549 9.26984 8.93185 -2.20103 -0.661261 0.355426
1051 1 1.14994 11.6456 8.41076 -1.70716 -0.750639 -0.434554
248 1 0.398221 10.555 8.33498 1.399 0.690411 0.0637254
495 1 2.10528 10.9843 8.00144 0.974646 -1.20266 -1.05242
302 1 2.27415 11.6047 8.98471 -0.834843 -0.640866 0.141618
122 1 3.08343 11.517 7.87698 -2.52163 0.579951 -0.400767
1035 1 4.09808 11.0715 8.17618 0.188218 -0.301297 0.405892
287 1 5.7655 11.1792 7.94151 1.66484 0.645378 -0.899379
1376 1 5.27587 11.6461 8.66703 -0.0462707 -0.796535 -0.0942425
764 1 5.96477 10.885 8.98171 0.0117018 -1.01914 1.6515
565 1 5.0852 10.6575 8.56274 -0.392396 -0.649608 0.324346
1030 1 4.95733 11.7852 7.68596 0.327162 0.267338 -1.12931
1217 1 6.65964 10.7803 8.14196 -0.990176 0.597074 -1.01337
306 1 7.33321 11.2744 8.7262 1.36826 -0.802158 1.41255
603 1 6.31652 11.8535 8.53422 0.169677 0.289619 -1.76685
130 1 8.41245 11.1748 8.404 -1.50348 -1.23083 -0.496117
41 1 9.2109 10.9697 7.78113 0.640046 -0.221946 -0.23741
1341 1 10.1234 11.0173 8.13583 -0.600847 -0.038216 -0.855857
1187 1 11.0247 11.2051 7.58807 0.422607 -0.750368 0.946838
354 1 11.6767 11.565 8.23233 -1.20714 0.880417 0.764862
1287 1 10.6394 11.8695 8.41525 1.07409 -0.28151 -1.07673
1161 1 11.1916 10.5403 8.37578 0.848071 -0.903473 -0.210954
346 1 0.770848 0.630948 9.37523 -2.58292 1.12184 0.322246
526 1 2.39583 1.10349 9.26668 -1.0064 -0.693843 -0.701177
382 1 2.92188 0.36836 9.64122 1.61885 -1.20957 -0.0135476
1348 1 1.87587 1.0829 10.1341 -0.63071 0.768616 0.286474
318 1 2.00807 0.0181269 10.059 1.43566 -1.42052 0.40832
628 1 3.14313 1.26412 10.2062 0.286265 -0.526468 -1.19644
749 1 3.76292 0.881178 9.4307 1.08482 -0.208273 -0.222723
598 1 4.66393 0.4835 9.64866 -1.67376 -0.375325 -0.117898
424 1 5.73329 0.876991 9.64836 -1.05677 0.520116 -0.203871
303 1 6.88699 0.276326 9.39911 0.0681814 0.105275 0.199742
1330 1 7.25517 1.31028 9.1965 -1.40566 0.243254 -1.40835
940 1 6.61987 1.22225 10.1008 0.377365 -0.026755 0.85921
453 1 7.89238 0.0278449 9.16106 1.76492 2.14026 0.9051
1215 1 7.77275 0.733589 9.94068 0.394969 1.28339 1.25574
953 1 8.74908 1.20025 9.74318 0.138113 -0.452697 0.928223
1040 1 9.77861 1.15579 9.01382 -1.98628 -1.3522 -0.0422435
915 1 9.27149 0.286145 9.295 0.340266 0.669475 -0.202377
563 1 9.94559 1.30099 10.2503 1.51877 0.56922 2.34532
778 1 10.6237 0.886794 9.60244 -1.53002 0.929741 -0.928225
1355 1 11.7275 0.358683 9.96717 0.111777 0.704637 2.05203
85 1 11.6403 1.42936 9.89969 -0.320152 1.27012 -2.17578
964 1 1.07096 1.68757 9.60374 1.28125 0.223806 -0.946805
1055 1 1.28363 2.92573 10.091 -0.736782 -1.04054 0.748959
588 1 0.299281 2.1834 9.96786 -0.0577985 -1.31552 -0.488271
1126 1 1.88987 2.19025 9.38418 0.507218 0.667106 0.900118
645 1 1.68075 2.11236 10.4679 -0.754098 -0.795286 -2.61413
176 1 2.77532 2.18154 9.91034 1.13036 -0.473903 1.31028
422 1 3.23279 1.89974 9.06497 0.872859 0.455237 -0.478327
966 1 3.69572 2.90674 9.09453 1.44442 0.824985 -1.36533
467 1 3.91698 2.22152 9.76533 -0.685619 -0.560667 0.651502
218 1 4.881 1.68 9.92468 -0.78889 -0.645322 1.5295
185 1 4.90282 2.70516 9.70564 0.827434 -1.2269 0.933548
890 1 5.94337 2.22355 9.96508 0.124321 0.377487 1.42333
700 1 6.87546 2.87561 9.94545 0.2757 1.85377 2.07434
712 1 8.98217 2.36052 10.4 2.45702 1.00835 0.78883
153 1 8.77451 2.94523 9.18475 -2.34155 0.58822 0.711484
10 1 7.62357 1.82268 10.0863 -0.939686 -1.14766 0.0324987
1041 1 8.04862 2.8803 10.2395 -0.348378 -0.33617 0.409763
191 1 9.6298 2.05584 9.48671 0.328935 0.16828 2.49729
881 1 9.81477 2.94255 9.91527 0.58683 1.21556 -0.360974
246 1 10.6715 2.25411 9.62952 0.951609 0.397313 -1.70181
1233 1 11.5675 2.64493 9.39999 -1.42901 0.328087 -0.0959721
1371 1 0.433804 3.5294 9.95297 0.864634 1.07434 1.37278
1364 1 1.10785 4.42156 9.91596 0.775541 1.56183 -2.04156
1204 1 1.59416 3.43242 9.17576 -0.568206 -0.113243 1.7611
1271 1 2.82273 3.63013 9.04233 0.971901 -0.587822 0.949325
882 1 2.05456 3.76911 10.1323 -1.49469 -0.462416 0.329098
408 1 3.0663 4.20927 9.91781 -2.96179 -1.68867 -0.925873
1050 1 4.20014 3.74448 9.47364 -0.351437 2.61089 0.198603
266 1 3.96491 4.46615 10.1912 -0.39217 -1.49765 1.49057
795 1 4.09721 3.20476 10.3399 0.125778 -1.29135 -0.0614929
462 1 3.03216 3.17574 9.89183 1.04256 0.569085 -0.158625
874 1 5.59399 3.56386 9.58223 -0.442567 -1.57046 0.0699976
159 1 4.93826 3.77932 10.3883 -0.271456 -0.91009 0.096159
594 1 6.57815 3.63678 9.1011 1.00732 -0.778049 -0.638578
1105 1 6.62324 3.89418 10.1025 -1.76147 0.520903 -0.186722
1208 1 8.80863 3.79903 10.1255 0.819064 0.497085 -0.356809
40 1 7.65985 3.74388 9.49027 0.983784 0.78434 -0.364271
1084 1 9.48051 3.85605 9.10828 -1.63133 1.81997 2.62085
1362 1 10.6222 3.24679 9.07435 0.0050431 1.01599 0.502521
1059 1 11.9049 4.39884 10.3981 0.994223 0.951153 0.292988
609 1 11.5046 3.76255 9.0984 1.12457 -0.349348 1.35453
35 1 10.8361 3.56186 10.4333 -0.179481 0.0951516 -0.308586
684 1 1.03528 5.39377 9.43276 -0.465727 0.0446627 1.18296
759 1 0.137048 5.4674 10.119 -0.41269 2.48332 -0.882
1349 1 0.193926 4.70253 9.35884 0.51524 -1.25871 0.166501
538 1 1.11092 5.7178 10.4481 2.00257 0.694354 1.00974
229 1 2.21171 4.68916 9.50287 1.80271 -1.76575 -1.69574
949 1 2.2368 5.60907 9.88061 -0.451399 1.55655 0.0320465
443 1 3.12835 5.32003 9.40002 0.300488 -0.65228 -0.0472052
1299 1 4.44386 5.20126 9.01976 1.83962 -0.0467687 0.435216
551 1 4.44974 5.52465 10.4749 -0.894993 -1.15848 2.96196
907 1 3.0199 5.30387 10.477 0.855911 0.109029 -0.00101526
1159 1 5.95083 5.70723 9.90853 0.31068 0.554193 -0.543803
360 1 5.46031 4.65003 9.67931 0.424695 0.0669597 1.11194
680 1 6.43467 4.74305 9.18975 -0.54556 -0.0882858 0.84153
1171 1 7.28694 4.62403 9.77362 -0.130488 -0.241288 -0.256203
264 1 7.49181 5.5616 9.36394 1.0722 -0.139075 0.856874
498 1 6.91364 5.82012 10.2917 0.40124 0.280996 1.99352
590 1 8.5915 5.3855 9.01927 1.57499 0.158786 0.274813
579 1 8.52649 5.34601 10.3318 -0.255841 0.862593 0.183304
1169 1 8.43017 4.54693 9.59699 -0.393679 -0.886127 0.0244203
269 1 9.55161 4.78155 9.89869 -1.55847 0.360128 -0.766797
891 1 10.1322 5.69107 9.72296 1.22316 0.441026 0.550906
1015 1 11.1485 5.05653 9.26436 0.622254 2.06015 -1.77188
1 1 10.653 4.66278 10.272 -2.01281 0.831423 0.950913
492 1 10.8405 5.81849 10.4574 -0.803583 -1.43132 1.12626
367 1 1.48356 6.60899 10.4026 1.58542 -0.704649 0.2178
931 1 0.542619 6.77999 9.92739 -0.474666 -1.5386 -0.695721
1062 1 1.58834 6.37323 9.41137 0.784348 1.06036 -2.00859
105 1 2.71001 6.53629 10.3114 0.832457 1.46351 -0.892491
933 1 2.00488 7.36137 9.77585 0.535859 -0.124037 -0.103587
221 1 2.91893 6.33821 9.22442 -0.012049 -1.63096 -0.337322
6 1 3.67368 6.17251 10.3171 0.835731 -0.341559 0.641015
900 1 4.01362 7.12576 9.92233 0.272513 -0.329892 -1.12536
1343 1 4.10717 6.19009 9.20958 0.552798 1.44466 -0.377377
364 1 4.74471 7.30899 9.3263 1.94157 0.493133 1.63966
317 1 5.32251 6.33689 9.04212 -1.65758 -0.940036 -2.14967
790 1 4.94111 6.41172 10.1402 1.58498 -1.22642 0.357525
982 1 6.44908 6.78891 9.00746 -0.295467 -0.855686 -0.551824
1196 1 7.10425 6.75946 9.86062 1.26645 -0.759819 0.317852
799 1 6.05493 6.77484 9.92521 -1.35184 0.683134 -1.08414
846 1 7.84294 6.27265 10.4469 -0.469649 -0.547118 -0.6378
188 1 8.24921 6.96706 9.74279 -0.56419 0.328078 0.420403
1256 1 9.17211 6.13793 9.94808 -0.5707 0.0710576 -0.550941
203 1 10.1579 6.58922 10.2735 -0.26819 1.53943 -0.84745
879 1 11.7013 7.0221 9.12133 -0.0985304 -0.773331 1.03648
1244 1 10.9665 6.22064 9.39692 1.0648 -0.484393 0.0364181
719 1 10.872 7.427 9.86658 1.25111 -0.514791 -0.697061
1251 1 11.4562 6.61147 10.2086 -0.973372 0.821098 -0.869067
471 1 0.735363 7.75323 9.31047 -0.276509 -0.049025 -0.120084
691 1 1.39608 8.55943 9.53441 -0.608271 0.755575 -0.1045
695 1 0.0565428 8.77983 9.76349 1.42336 0.316337 0.630404
23 1 1.11053 7.58774 10.3493 0.978062 1.46072 2.40043
370 1 2.64134 8.72071 9.5469 0.777494 0.985262 -0.196036
1318 1 2.19608 8.2316 10.4047 1.14899 -0.801418 -0.372499
549 1 3.11945 7.51104 9.4607 -0.517214 2.02399 0.244131
944 1 3.9873 8.13488 9.19688 -0.995818 -0.0687299 -0.989345
1070 1 3.36096 7.88785 10.3869 -0.173667 0.197272 -0.913813
1080 1 5.027 8.19466 9.75638 -0.0456346 -0.399513 0.526235
715 1 5.81762 8.75301 9.85705 0.263333 -0.706726 -1.05318
1380 1 7.09458 7.65987 9.26287 0.946468 -0.608612 0.895456
223 1 6.87781 8.68887 9.19904 -0.559208 2.15299 -0.994656
1245 1 6.51697 8.0189 9.93965 -0.491794 -1.05448 -0.266443
168 1 7.92877 8.79546 9.51798 0.177828 -0.466167 -0.134907
100 1 7.77064 7.83633 10.0943 1.37046 -0.0662119 1.10603
714 1 8.74946 8.11584 9.52203 0.0735323 0.274029 -1.38011
1270 1 9.48258 8.70396 10.2297 1.3202 -0.184973 0.26847
1162 1 10.1141 8.10512 9.67263 0.0166225 0.942834 0.484404
125 1 11.319 8.03667 9.06979 0.64681 0.0738024 0.735337
1377 1 10.5064 8.79549 9.13528 -0.745237 -0.530889 -0.511349
758 1 11.9001 7.72775 9.9551 -0.881874 -0.448226 -0.626425
474 1 11.0982 8.44066 10.0774 -0.716876 0.264739 0.158916
768 1 0.597759 9.67778 9.90969 -0.454326 -0.330397 0.465794
1307 1 1.80767 9.46698 9.95102 -0.105591 -1.36988 0.940943
641 1 2.73934 10.0669 10.2441 -0.5828 0.0817274 -0.105499
679 1 3.26317 9.60073 9.2564 1.63288 1.95506 -0.127574
390 1 4.27649 9.91343 9.27844 -0.0897385 0.708215 1.45767
151 1 3.59393 9.03703 9.98874 0.108149 -0.629588 1.78611
812 1 4.1557 9.8593 10.3113 -1.32787 -1.56428 1.42303
916 1 4.95093 9.09579 9.3335 -0.827745 0.135367 -2.31879
1195 1 5.71208 9.87626 9.23828 0.597596 0.294391 -1.97697
1033 1 5.4823 9.5769 10.2986 1.50149 0.0387015 -1.5497
449 1 6.74853 9.36248 9.92991 1.05383 -0.280067 0.481449
707 1 6.1589 10.3271 10.2614 0.47027 -1.23002 -1.53202
831 1 7.33453 10.2919 10.0575 0.532151 1.00722 -0.0270743
783 1 6.68498 10.117 9.07293 0.0825494 -0.935399 -0.251668
499 1 8.43446 9.73186 9.98956 0.933501 -0.539727 0.295726
1192 1 9.45504 9.41761 9.27894 -1.43274 1.02307 1.74008
1228 1 9.88196 10.1054 9.91707 -0.986118 1.10394 -2.27685
199 1 10.3436 9.17091 10.0735 -0.816692 -0.596757 0.212098
632 1 11.8723 10.1124 9.20111 -0.407947 1.18535 1.44048
341 1 11.2947 9.65326 10.0353 0.532091 -1.9853 1.3256
801 1 0.650737 10.7037 9.69188 -2.02759 0.321636 -0.165706
381 1 0.0109608 11.4811 9.32894 -1.58333 1.49856 2.90538
989 1 1.12569 11.7086 9.68357 -0.467165 -1.8882 -0.600116
678 1 2.77121 11.1856 9.9228 -1.34861 1.40422 -0.220775
1203 1 1.90315 10.69 9.72119 -1.2179 1.07046 -0.972993
753 1 3.63953 11.6496 9.95938 -1.1124 0.596035 -1.6041
252 1 3.59373 10.5715 9.83519 -1.83891 0.0716877 0.0348882
88 1 3.3161 11.3317 9.03894 0.248329 -0.213834 0.358741
102 1 4.38823 11.0005 9.26187 0.647604 0.35123 0.905156
186 1 5.39608 11.7132 9.92692 0.382025 -0.217204 -0.510491
1135 1 5.21809 10.6616 9.80992 0.815583 -1.67493 -0.417112
1249 1 6.46341 11.3164 9.65643 0.139436 -0.158358 -1.61333
582 1 8.96639 10.6556 9.80202 0.121237 -0.224518 1.92189
529 1 7.99333 10.8271 9.38944 -0.103974 -1.62963 0.711335
660 1 8.48846 11.7684 9.93735 -1.25962 -1.02044 -1.34688
815 1 7.5719 11.4473 10.3385 0.420397 -0.0214599 0.844561
385 1 9.89866 11.5519 10.0242 -1.16947 0.585411 -0.443246
294 1 9.58854 11.3096 9.05871 -0.203615 -1.5222 0.182958
140 1 10.8547 11.8169 9.48986 0.0107426 0.87972 1.30171
414 1 11.9353 11.0761 10.3475 1.2597 1.2183 1.7859
400 1 10.9426 10.8852 9.94984 -0.27109 -0.430687 1.61054
220 1 1.10118 0.0698771 11.9401 -0.521234 0.145055 0.240286
771 1 0.741058 1.45138 10.5637 1.47586 -0.509798 -0.590347
547 1 0.885706 0.43164 10.5493 1.56079 -1.5575 -0.202669
1036 1 0.406974 1.09072 11.7983 -1.50253 1.02064 -0.136779
211 1 1.92655 0.94905 11.2307 1.54824 -1.54689 -2.84659
289 1 3.53033 0.878855 11.1973 1.51423 1.56583 -0.895199
998 1 4.28662 0.27481 10.5709 0.771 0.109643 0.0958696
1363 1 5.75511 0.594846 10.6074 -2.27489 -2.35645 -0.0963187
112 1 5.5876 0.872974 11.8217 -0.294182 0.335532 1.46274
208 1 5.00804 0.00916529 11.4657 -0.669688 0.0126971 1.78108
402 1 4.89198 1.02752 11.1376 0.52198 0.0249027 -0.23987
487 1 7.16578 0.418013 10.5971 -1.21699 0.169587 0.961946
399 1 6.6086 0.744031 11.5692 0.451693 0.02257 -0.341212
445 1 8.67159 1.30389 11.8528 2.55638 -1.36255 2.6004
156 1 8.92135 1.44221 10.8559 0.542378 -0.791546 0.160435
581 1 8.90472 0.359952 11.529 -1.31854 1.07121 0.275167
1034 1 8.51488 0.516113 10.5561 0.701009 -0.849616 -0.722893
1268 1 9.78104 0.833503 11.2047 -1.23213 -0.331082 2.24728
1100 1 11.1632 0.790557 11.7522 -0.806957 0.47398 -0.984117
675 1 10.9034 1.41247 10.691 -1.75409 1.10631 -1.88405
1201 1 10.6073 0.327038 10.6096 0.0889306 0.217813 0.0500587
999 1 11.8388 0.783362 10.8777 0.851018 -1.80603 -0.669024
1123 1 0.759404 2.03267 11.689 -0.0965441 -0.565175 0.565994
850 1 0.526034 2.55837 10.8352 0.822378 0.726606 0.274617
1045 1 2.96598 2.18021 11.891 -0.577868 -0.442621 0.0779908
405 1 1.79963 2.18149 11.4847 1.13594 0.714156 -0.693952
225 1 2.53052 1.69765 10.9743 0.00458741 0.328213 0.770469
886 1 2.35865 2.7037 10.7983 0.874594 0.207185 -1.11942
1222 1 3.54543 2.37624 10.7463 -0.0120115 -0.0592393 -1.31094
5 1 3.96324 1.68381 11.7743 -0.80538 -0.274831 0.410106
987 1 4.17704 1.51817 10.6229 -0.110083 1.4956 0.0779553
1337 1 4.06383 2.87453 11.6278 -1.34955 0.875986 0.206986
282 1 4.85802 2.23187 10.8384 -0.125215 0.598292 -0.135569
506 1 5.00472 2.08624 11.838 1.60726 1.46535 0.675206
975 1 5.82954 1.58021 10.9834 0.364635 0.700852 -2.04955
192 1 5.97329 2.61693 10.9591 0.163768 0.340016 -0.339114
15 1 6.28377 1.58537 11.9742 -0.670387 -0.451897 -1.55799
502 1 7.27968 1.55231 11.6606 -1.19338 0.0681224 1.08158
699 1 6.95207 1.9216 10.7853 -1.30679 -0.189144 -0.489093
918 1 7.00878 2.50277 11.6586 0.517474 -0.413499 0.388992
204 1 8.2597 2.80477 11.7963 -0.930186 1.52802 -1.04472
745 1 8.13111 1.9614 11.0247 0.435536 0.356607 -1.05291
340 1 10.2996 2.34126 10.6008 -1.60892 1.90097 1.41923
1106 1 10.3492 1.62657 11.6698 -0.188678 -0.320326 0.281199
841 1 9.43468 2.46187 11.7168 1.63475 -0.47368 2.71132
182 1 11.8718 1.72128 11.1151 1.05428 -0.475445 1.41066
434 1 11.4873 2.70972 10.5979 1.46639 0.296249 1.45792
1247 1 10.7661 2.58027 11.4562 -0.199346 -1.06086 -0.053685
531 1 11.5481 2.99496 11.8947 -1.18407 1.22283 1.59807
1291 1 1.47723 3.2217 10.9799 1.37291 -0.371627 -2.08298
1294 1 0.166622 3.99188 11.9947 1.28548 -0.639954 -0.508332
1242 1 0.591865 3.06766 11.9653 -0.185199 -0.624565 2.26225
201 1 0.434816 3.67045 10.9786 0.108041 -0.611084 -1.13737
1020 1 1.50828 4.34654 11.5056 -0.691255 0.86071 -0.54873
849 1 2.81 4.18287 11.1314 0.805975 1.42944 0.936342
1378 1 3.08028 3.18984 11.4488 0.273256 1.11899 -1.16275
396 1 4.06958 3.75597 11.0983 -0.275645 1.25694 -0.618604
1281 1 5.79826 4.43959 11.4652 -2.20232 -1.12137 0.0647613
1101 1 5.04435 3.30626 11.6502 -1.29703 -0.728005 0.565915
1277 1 6.39625 3.62158 11.4213 0.291761 -0.405713 0.148982
1124 1 7.17409 3.14768 10.893 -1.12982 0.484086 -0.781364
520 1 7.34191 4.06229 11.5687 0.742826 0.344696 0.402279
475 1 7.88544 4.08483 10.7057 -0.113419 0.659467 0.454992
271 1 8.53072 3.82322 11.7106 0.55856 1.25339 -0.401431
956 1 9.97517 3.44025 11.5793 0.75072 0.517666 0.0725982
181 1 9.82292 3.86439 10.6278 -1.71098 0.17228 -0.843928
179 1 9.06494 3.28023 11.0753 0.773119 -0.288248 0.459895
532 1 10.9508 3.92247 11.5257 -1.27065 1.08695 -0.342253
1149 1 0.802831 4.76507 10.9791 1.65479 -0.690399 -1.78408
1018 1 0.90411 5.43621 11.7199 -1.14792 0.642526 0.396546
1303 1 2.25056 4.99344 11.8312 0.39207 1.16117 -0.434738
596 1 1.96028 5.87296 10.9474 1.19711 0.198821 0.256004
690 1 2.10423 4.80052 10.6062 -0.0517668 -1.34415 -0.052378
658 1 3.15618 5.48086 11.9622 -1.55538 0.511435 -0.789319
334 1 4.02324 5.87887 11.7778 0.929306 -0.586311 -0.755248
1095 1 3.76763 5.07128 11.0652 0.362078 -1.46049 -1.28832
129 1 5.15981 5.53507 11.5629 2.07213 -0.97142 -0.385299
642 1 5.38171 4.95807 10.5993 0.947891 0.0284673 0.706331
1198 1 4.71842 4.59816 11.3821 0.247607 -0.448249 1.67788
595 1 7.09356 5.41972 11.8585 -1.0159 0.617031 -1.86547
503 1 6.22466 5.55483 11.0447 0.273756 0.948664 0.676033
781 1 6.44205 4.697 10.6865 0.365599 1.46994 2.66746
265 1 7.98128 4.86361 11.6799 -0.44617 0.607533 1.76628
1353 1 7.58136 5.2397 10.8123 0.122708 -0.803112 0.720357
540 1 8.8574 5.42964 11.5984 -0.992563 -0.128133 1.30543
368 1 8.98248 4.56804 11.1925 -1.96183 1.17228 -0.325292
66 1 9.73965 5.52341 10.8481 -0.0950156 1.12955 1.16909
737 1 10.0915 4.63625 11.2481 -0.44801 1.01733 -0.848546
593 1 11.7428 5.8075 11.169 -0.822133 -0.0581006 -0.556359
612 1 11.6795 4.68422 11.375 -0.573865 1.02142 -0.25885
661 1 10.56 5.49423 11.7101 -0.141552 -1.42748 0.904383
572 1 0.131298 6.90271 11.0064 1.30843 -0.354303 -0.93327
460 1 1.12119 6.53259 11.4373 0.31944 -0.69372 2.40313
279 1 2.86524 6.3328 11.3668 -1.99017 0.493938 0.910799
71 1 2.1214 7.31288 11.1475 -0.847975 1.28494 -1.65383
1272 1 3.45986 7.13295 10.9702 2.78825 1.24497 0.51091
283 1 3.51314 7.32485 11.9981 0.708453 0.310163 -0.364088
1017 1 5.60538 6.62808 11.1267 -0.29778 -2.14361 -0.34789
1350 1 4.55323 6.47758 11.152 0.956614 -0.398672 -0.0804789
1077 1 4.61153 7.44339 11.5641 0.304651 0.700738 0.0674828
371 1 6.30927 6.81164 11.9151 0.222891 -0.563016 -1.25677
328 1 6.90975 6.20608 11.365 -1.13877 -1.30099 -0.157875
913 1 6.59108 6.89985 10.7899 -0.963072 -0.109726 -0.083446
514 1 8.8826 6.53884 11.0612 -0.142439 -0.953104 -0.97117
1096 1 7.96906 6.04464 11.4309 2.45836 2.0197 -0.441797
1138 1 7.6275 7.08288 11.0976 0.706782 1.14054 -1.04512
981 1 8.87517 7.4859 10.5694 -0.831603 -0.018497 -2.53618
903 1 9.44663 7.36657 11.9167 -0.534456 1.08271 -0.378694
934 1 10.0849 6.35951 11.3753 -0.363035 0.271622 0.523452
880 1 10.4456 7.26402 11.7262 -1.13815 -1.37085 0.446512
1078 1 11.1331 6.62077 11.377 -1.56819 -0.748074 -0.0345911
1329 1 0.158637 8.92446 11.8175 -0.247494 -2.19443 -0.989005
569 1 0.231984 7.94544 10.9726 0.424446 -0.703838 0.758112
4 1 1.05691 8.70925 10.584 -0.870688 0.532077 -0.596116
80 1 1.17124 7.97052 11.4146 -1.05473 0.823276 1.14288
920 1 2.98924 8.82585 11.9423 -1.30427 -0.305588 -0.0138422
521 1 2.81354 8.95267 10.7644 -0.325159 0.670743 0.766901
497 1 3.15645 8.04965 11.3536 -0.680075 -1.03951 0.985206
491 1 3.84538 8.81939 11.1394 -0.19258 -1.0407 0.357744
722 1 4.5999 7.5883 10.5135 -0.509908 0.657204 -0.17462
1295 1 4.70469 8.72353 10.6267 -0.0922165 1.51247 -0.0381855
1132 1 5.56711 7.78786 10.5715 0.196611 -0.550954 1.00967
412 1 5.71618 8.55278 11.1873 0.235349 1.40423 0.782969
1170 1 4.64901 8.47217 11.7984 0.265041 2.76135 -0.0957576
1250 1 5.67887 7.6079 11.6855 1.50688 -0.391204 -0.627545
553 1 6.81927 7.89356 11.2183 1.00047 -0.0960025 -1.51015
557 1 7.06069 8.92822 11.6475 0.365309 0.36537 -0.521664
626 1 7.20847 8.62086 10.5244 -0.224936 1.83726 -0.831216
1075 1 8.48329 7.52041 11.6235 -0.371669 0.861432 0.0116808
969 1 8.36642 8.72866 10.586 1.47385 -1.00436 -0.681663
1328 1 7.82583 8.31818 11.4254 -0.668117 1.44394 0.0584837
75 1 10.191 8.19795 11.9677 -0.87459 -0.872507 1.34476
365 1 10.3282 8.61822 11.0056 0.864556 2.18133 0.132896
349 1 9.91662 7.71269 10.6683 -0.649249 -1.33271 -0.671326
55 1 9.3228 8.32903 11.2644 0.282933 -0.958463 0.792109
1224 1 11.1503 7.59817 11.0096 0.176605 -0.474351 -0.0987333
394 1 11.0871 8.64177 11.8781 -2.19811 0.482961 0.139276
1146 1 0.95475 9.44978 11.5518 0.0976013 0.242158 1.02447
760 1 0.0355913 9.0261 10.7294 0.50815 0.363205 -0.0750463
927 1 0.161509 10.0252 11.0932 1.01615 -1.68092 -1.10042
967 1 1.97024 9.10668 11.8613 -0.484656 -0.529835 0.256436
167 1 1.92035 9.86423 10.9711 1.56655 -0.519565 2.0993
986 1 3.34929 9.78722 11.2298 1.8384 0.445508 0.484095
724 1 5.03724 10.2295 10.8081 0.764425 -0.671291 0.22761
1113 1 4.71254 9.89528 11.6706 0.19173 -0.245786 1.23125
937 1 6.34824 9.30297 11.0623 -0.666825 0.239766 -1.56786
37 1 7.13893 9.98226 11.0633 -1.16802 -0.782509 0.371514
1304 1 8.80498 10.2348 11.5923 -0.55277 0.345513 0.341302
833 1 7.84707 10.4569 11.8816 1.8989 -0.406553 -0.588821
597 1 8.10546 9.45041 11.2262 0.627421 1.71763 0.202097
1092 1 10.2571 9.94888 10.8463 0.153714 -0.597164 0.446938
1069 1 9.14966 9.49565 10.9222 -0.210543 0.721799 1.09678
325 1 9.78522 9.19556 11.8805 -0.857248 -0.487306 -0.0923493
1239 1 11.195 9.53295 11.25 -0.603777 0.53216 -0.624381
219 1 1.15483 10.829 10.553 0.0260949 1.15876 -1.68734
1193 1 1.04687 10.659 11.6581 0.329618 0.367567 -1.3724
945 1 0.111762 11.0993 11.5438 -0.955093 0.384072 0.946813
1373 1 2.31747 10.8684 10.9719 -2.37786 -0.654691 0.442799
488 1 2.84074 11.2004 11.8394 1.24578 -0.837066 1.26514
633 1 2.97341 11.803 10.9293 0.319951 -0.996955 -0.448032
31 1 1.63151 11.8324 11.0647 0.749067 0.263524 -0.565536
1026 1 4.34738 11.0582 10.5022 0.54134 0.696415 -2.55692
56 1 3.45738 10.7963 10.9433 -1.32513 -0.389911 0.43832
30 1 3.95342 11.3521 11.6147 1.2315 0.899302 -0.675872
12 1 5.18503 10.9971 11.6649 0.982514 -0.0157304 0.406821
1221 1 6.17094 10.5338 11.2201 0.597648 -0.464714 0.767256
576 1 6.21018 11.6071 11.9911 2.06521 0.213084 0.407533
504 1 7.01192 11.0963 11.3339 0.441461 3.45082 0.83797
697 1 6.18638 11.5089 10.7355 1.88799 -0.337255 0.134014
1214 1 7.24595 11.9822 11.7195 0.709999 0.716925 0.549751
1143 1 8.33803 10.7451 10.6674 -0.0243156 -1.37627 0.400496
372 1 8.17914 11.635 11.2901 -1.42364 -0.206329 -0.402956
432 1 8.88599 11.154 11.9825 -1.09667 -1.25804 0.0924137
1238 1 9.95113 10.8996 11.7 0.954436 2.34902 -1.56283
1136 1 9.51616 10.7517 10.7814 0.22586 1.33653 0.997374
1297 1 9.68489 11.784 11.0983 1.68616 0.219664 0.978795
1301 1 10.6807 11.9581 11.9662 -0.645291 -1.32245 0.362621
1131 1 11.0622 10.5802 11.4763 -1.606 -2.08408 0.323064
348 1 10.5408 11.1868 10.8394 -0.796408 -0.30112 -1.29247
1016 1 11.3614 11.7834 11.1225 1.01797 0.523608 -1.09715
ITEM: TIMESTEP
5000
ITEM: NUMBER OF ATOMS
1382
ITEM: BOX BOUNDS pp pp pp
0.0000000000000000e+00 1.2000000000000000e+01
0.0000000000000000e+00 1.2000000000000000e+01
0.0000000000000000e+00 1.2000000000000000e+01
ITEM: ATOMS id type x y z vx vy vz
539 1 0.813782 0.572254 1.20706 0.751472 -0.634581 3.01714
408 1 2.60036 1.6423 0.695407 0.329032 0.819658 -1.58166
628 1 0.731665 1.55713 1.04041 0.250189 0.221572 -0.272705
730 1 3.16513 1.07061 1.70553 1.31279 -1.53821 -0.600428
850 1 2.61761 0.446536 0.867623 1.58528 -0.277401 1.40188
986 1 4.19489 0.952882 11.7775 -1.33507 -0.0292766 -1.18026
1351 1 6.08068 0.363371 11.5759 0.290883 -0.220778 -0.680361
800 1 5.07583 1.48658 11.4883 0.682501 0.718335 0.854779
586 1 5.20093 1.47062 1.06443 0.431975 -1.24791 -0.567114
481 1 5.09429 0.603569 1.65882 -2.07671 0.676204 -0.0465802
755 1 7.69455 11.523 1.66686 -0.598595 0.828322 0.769628
461 1 6.81201 11.6757 0.299523 1.29821 0.981825 0.983069
306 1 7.62031 1.44913 0.729592 1.10458 1.09385 0.878758
1372 1 8.37505 0.485152 0.0394535 0.900538 -1.77885 0.564155
17 1 8.60308 2.22728 0.457616 1.23038 0.287876 -0.201027
354 1 10.4731 0.822285 0.938904 -0.532175 -1.87239 -0.768409
325 1 11.5257 1.82981 2.34131 1.20598 0.460698 -0.374642
1193 1 1.35759 10.9243 0.935301 1.20096 -0.338767 0.499502
64 1 11.3923 1.35607 0.977794 0.778707 -0.335358 -2.53279
1236 1 0.243398 2.35579 1.54606 -0.0798647 -0.819269 1.50863
1045 1 0.814938 3.36986 0.229975 0.787117 -0.825442 -0.176979
30 1 2.63317 2.66293 11.8795 0.88945 0.163074 -0.536716
438 1 1.0792 2.96716 11.1938 -0.284408 0.54692 -0.505235
849 1 2.78055 2.70757 1.28148 1.19685 -0.927858 -0.0548931
431 1 4.36426 2.89807 11.8219 -0.236686 -0.320591 -0.557936
186 1 3.35426 1.85876 11.936 -1.52601 1.26746 -0.234563
442 1 5.42115 2.11069 0.235363 1.4054 -0.0968981 0.324846
208 1 3.44113 2.69089 0.508529 0.613159 0.803559 -0.103319
15 1 6.63611 3.14943 0.766339 0.420414 -0.533262 0.337384
930 1 3.94755 4.04304 0.15072 1.26634 0.308943 0.581443
1315 1 6.31423 1.98398 0.860781 -2.12102 -0.418984 0.391062
82 1 6.14188 2.69278 11.5247 0.565568 -0.123232 0.27573
1243 1 7.07403 2.61333 11.844 0.080777 -1.51349 0.907056
592 1 7.54142 2.63966 0.861129 1.29477 0.694055 -0.146569
660 1 8.17735 3.09851 0.0562907 -0.647891 -1.70959 0.929449
204 1 9.06313 2.18842 1.86505 0.0606667 0.0371981 -0.307558
1189 1 8.12485 4.26768 2.95262 -0.178105 0.59022 0.233996
1263 1 10.8485 1.93971 1.58799 2.12519 0.270186 -0.595345
535 1 10.5527 2.83469 0.742122 -0.106798 -0.287747 -0.0138947
956 1 9.97242 2.6203 11.834 -1.25755 -0.77388 -1.33456
220 1 0.495503 2.39033 0.383878 -0.131042 0.161957 -0.775871
1242 1 11.2926 4.95633 1.3395 -0.87168 -0.266167 -0.832753
492 1 0.183731 4.39752 0.820129 0.95838 -0.225591 0.222894
171 1 1.6562 3.41128 1.41016 -0.832903 -0.251166 -0.438055
1206 1 11.7036 3.26398 0.356114 -1.2677 0.264938 1.4829
686 1 2.28441 3.37519 0.566315 0.603002 -0.415528 0.180959
1247 1 1.67249 2.61474 0.121045 -3.25469 1.09748 -0.230925
814 1 3.86587 4.96941 0.467333 -0.903159 -0.899032 1.74584
1219 1 2.19714 6.49796 11.8556 1.44413 2.01083 0.0350117
405 1 3.31997 6.08702 10.881 -0.789478 -0.565759 0.711966
720 1 4.9355 4.54888 0.712287 2.58305 -2.12332 -0.736292
36 1 6.32688 4.5934 1.12107 1.98908 -0.0188467 -1.83753
795 1 5.26607 3.54324 11.9609 -0.993303 -0.0127393 0.938018
682 1 7.60276 3.60378 1.08708 -0.311223 1.4639 -0.101922
887 1 7.1503 3.64373 11.8072 -1.43154 -0.70299 0.176816
142 1 8.56615 4.92597 1.68869 -0.270529 0.646258 0.79368
439 1 9.00947 3.94365 3.45975 0.421914 0.147059 0.724968
864 1 9.27954 3.20152 2.01588 1.84946 -0.0596289 -0.883839
1119 1 7.90258 3.69314 2.0734 0.936792 -0.735909 -1.40896
307 1 7.92207 4.83275 11.0587 1.46934 -0.105432 -2.09427
1068 1 8.17454 4.52231 0.676955 -0.140809 -1.46416 1.00895
1216 1 9.27949 4.17648 0.141825 -0.267342 0.572258 0.525798
399 1 9.27307 4.0465 1.28655 1.78971 1.01505 -0.715317
1127 1 11.2489 4.21636 0.153589 0.950199 1.20546 -0.680315
209 1 1.54656 6.07181 1.27718 -1.75441 -0.259347 1.075
331 1 11.5677 8.87911 1.60699 -1.15679 0.447312 -0.381435
837 1 4.68887 5.31667 11.782 2.55434 2.26314 0.260422
105 1 2.90437 4.84903 0.75437 -1.74505 0.624824 -0.353799
1105 1 5.63499 5.05969 11.791 0.451655 0.202649 -1.73991
954 1 5.39726 5.76484 2.2137 -0.15895 -0.481531 0.111318
206 1 4.35304 5.93222 0.922426 -1.95818 -1.28898 0.284534
508 1 4.64355 5.25741 1.59038 -0.278405 -0.226917 0.165399
396 1 7.26152 4.37555 0.467377 -0.0404822 -0.0559528 0.58367
61 1 8.16854 6.20552 10.524 1.53363 0.892975 -0.749536
413 1 9.26821 5.14293 0.859006 -0.312667 0.919801 -0.214196
595 1 9.4703 5.33109 1.94877 2.0398 0.218129 0.754311
273 1 8.41109 6.39781 0.296934 -0.283472 -0.876913 -1.28799
781 1 9.69929 5.57281 11.7348 0.123219 -2.59228 -2.50033
568 1 10.9645 5.33257 0.34505 1.15578 0.608811 0.895648
150 1 10.5828 6.42149 0.67878 -1.64089 -0.15652 0.178176
593 1 11.2348 6.02686 11.1615 0.155137 -0.0276239 -0.868143
612 1 10.3929 6.38025 11.6301 0.964975 -1.42679 -1.22188
533 1 11.8515 5.05657 11.744 -1.592 0.285498 -0.298289
531 1 2.96874 6.74471 0.710096 0.298619 0.272607 -0.639121
345 1 1.34824 7.3744 2.14458 -0.871798 0.329884 -0.975233
368 1 0.510633 7.47083 0.485275 0.00615348 0.776843 -0.117464
460 1 2.68928 6.25362 1.72471 -1.95784 -0.165441 -1.33409
695 1 2.70792 8.27108 1.0207 0.0480668 0.60469 -1.18817
9 1 3.40609 6.61163 2.38573 -1.17822 -0.488854 0.0946371
757 1 3.69063 6.58974 1.46395 -0.0420731 1.39534 -1.5026
392 1 3.59034 6.73789 11.883 0.191014 1.01446 1.59452
839 1 6.5761 7.08114 2.74621 -0.318443 -1.98123 0.6842
1277 1 6.94888 5.53508 1.34877 2.0932 1.03159 1.88986
1304 1 7.77255 6.92879 11.556 -0.543433 -0.6642 -1.78961
92 1 7.31637 6.42371 0.406917 -0.558026 0.547829 0.269244
912 1 7.43633 7.61528 0.481407 0.281714 -0.0327907 -0.37095
230 1 7.40794 7.71037 1.77865 0.35621 0.302655 -0.826891
951 1 8.62974 7.48542 0.0547526 0.649647 0.230235 0.148568
721 1 8.85019 5.98375 1.35266 -0.132194 1.76135 -0.677538
661 1 11.5096 6.99659 11.9378 -0.0885274 -0.271317 0.644801
572 1 11.6617 7.85672 0.899703 0.437951 0.591446 0.924009
23 1 2.64453 10.8434 2.10589 -1.07054 -0.743879 -0.582731
1205 1 1.73323 7.28563 0.246976 0.0798954 0.49464 0.085643
270 1 0.552665 6.59412 1.19499 0.0795968 -0.480417 -1.90759
623 1 1.70187 8.68881 2.59295 -1.72646 -0.172827 -0.516977
541 1 3.55328 8.80614 1.35566 -0.979113 1.26802 -0.298218
425 1 4.51041 7.06542 0.771565 0.270249 -0.0357374 0.298859
279 1 4.59839 8.3232 0.30654 -0.978659 -0.726283 -1.81645
898 1 5.18673 6.51932 1.38656 0.054047 -1.13788 -0.558294
854 1 5.4936 8.74412 0.947567 -0.0340471 -0.361761 -0.596414
636 1 5.38055 7.71378 1.03955 0.0424524 1.78074 -0.874999
873 1 6.49018 6.71359 11.4691 0.642816 1.0962 1.20106
829 1 6.32006 8.0463 1.2005 -0.676707 -1.36057 0.972669
530 1 6.45199 6.69419 1.30205 1.3474 1.52084 -0.712627
857 1 9.36701 8.3829 0.59595 -0.108458 1.06576 0.882701
1060 1 9.29327 8.42785 11.0326 0.390094 0.743738 -0.711329
1202 1 7.57598 8.76642 1.63509 0.551201 0.306181 0.314958
265 1 8.47148 9.51362 11.8249 0.823286 -0.591889 -0.223841
1009 1 11.8845 9.32919 11.1547 1.94702 1.15681 -1.16672
1353 1 10.2553 8.70038 0.0678951 -1.65042 -0.389633 0.14983
1133 1 9.45099 6.3133 0.391301 -1.1137 -0.825016 2.50742
1116 1 0.733881 8.88345 1.40899 -1.06324 0.121697 0.225404
1329 1 11.7326 10.0123 0.382861 -0.160004 0.33068 -1.26168
1084 1 10.4259 9.14339 2.02449 2.45768 0.392041 -0.771775
16 1 0.373469 9.07143 0.0851392 0.118111 0.439729 0.842993
151 1 3.22033 11.7672 2.66163 -0.12645 -0.0154508 0.716432
1152 1 1.49297 10.8487 2.04622 0.226932 0.511606 0.741003
394 1 1.02608 9.79713 2.01687 1.62344 -1.6336 -1.2655
390 1 4.04349 10.1842 1.41624 0.247239 0.657605 -0.118445
1255 1 4.55 7.37809 1.75217 -0.257717 1.45924 0.000574688
671 1 3.04071 10.1847 0.043097 -1.30537 -0.806645 -1.05465
283 1 5.66363 8.84479 11.7047 1.44463 -0.578381 0.615691
194 1 3.58781 9.64034 2.08649 1.33373 0.0403102 0.582651
1089 1 6.44917 9.4033 0.0476334 0.381739 2.02509 0.433945
1160 1 6.56175 8.38249 0.227576 0.0904205 0.780997 -0.379949
708 1 7.47369 9.05136 0.518118 0.414809 0.0690069 0.838901
372 1 6.55878 10.5066 0.153466 -0.83448 -0.00782756 2.31525
810 1 7.8361 9.07681 11.1042 -0.601557 -1.63091 0.589797
432 1 8.51795 10.1491 0.577567 -0.27397 1.52656 0.771635
404 1 10.8038 9.48254 0.472864 0.99061 2.48239 -1.39813
974 1 9.47113 10.3714 1.07713 1.38191 0.371042 0.175343
1366 1 10.5561 9.88934 1.36002 -0.022669 -0.463617 0.159388
729 1 11.2253 11.6735 0.831081 -0.669306 0.137637 0.955705
880 1 0.655974 10.298 11.9583 1.29996 2.0413 -0.468043
495 1 1.28037 11.6983 1.61681 -0.725459 0.300706 1.08072
211 1 0.880334 0.130476 11.768 0.138353 0.0651064 -0.736522
760 1 5.0854 10.9549 2.44429 0.28875 1.20925 2.18062
224 1 4.6665 11.2382 1.36502 2.02514 0.765332 -0.548714
237 1 3.13718 0.0774545 1.68064 -1.95126 -0.278755 1.74681
634 1 3.38286 0.413586 0.0869448 0.161302 -0.588395 0.98353
143 1 6.04767 11.0199 1.94109 0.817277 -0.0922663 -0.44566
497 1 2.66888 10.847 0.716286 0.153724 -0.831079 0.658662
717 1 5.26139 0.68905 0.191693 -0.698282 2.31658 1.08567
1079 1 3.58368 11.3928 1.00118 0.110708 -0.390993 -0.97015
1001 1 7.15903 0.784639 0.00697705 -0.595057 -0.189855 -0.0845642
437 1 8.44922 10.903 1.45573 -1.17311 -1.63507 0.835491
55 1 6.89371 11.8348 10.9381 -0.592587 -0.455388 0.463453
94 1 9.73284 0.757585 1.71955 0.405352 -0.117636 -0.0538602
1114 1 7.8414 0.264244 11.2051 -0.00701555 0.749822 -1.00551
1052 1 9.58387 11.6061 1.04862 0.228287 2.1778 2.00029
582 1 10.2858 10.9362 1.10061 0.0649358 0.24939 0.175194
1228 1 10.2046 11.6759 0.130501 -0.668677 0.256902 -1.223
400 1 11.3704 10.6149 1.3123 -0.335363 -1.77187 -0.28766
1239 1 9.52091 0.52232 0.489131 -1.85789 -0.923735 -0.73984
1377 1 10.2648 9.87351 11.4742 -0.992899 0.446443 -0.668771
569 1 0.864532 9.9865 0.980866 0.936235 0.399988 -1.40912
621 1 11.5968 11.9623 1.76788 0.668338 -1.28342 2.4103
734 1 0.496039 1.10422 2.77441 0.522248 -0.748157 -0.579651
862 1 1.64798 2.24486 1.07653 1.31637 -0.0498579 0.0750745
1048 1 11.7004 0.434751 2.73739 2.01259 0.179525 -0.838522
488 1 1.03421 1.0914 3.60697 0.790664 0.925809 0.911198
312 1 2.2175 1.68851 1.79155 -1.0257 0.705514 0.0731271
261 1 1.88119 0.463208 3.42014 -0.912372 0.192571 0.118728
832 1 3.56436 1.16341 0.729267 -0.107196 -1.60086 0.323491
576 1 4.11949 1.01419 1.9125 -0.00122806 -1.0684 -0.537222
403 1 3.61757 11.5156 3.8893 0.500902 -0.092171 1.13997
83 1 5.04309 1.67804 2.07884 -0.283313 0.233786 0.549455
45 1 2.70317 1.64878 2.89804 0.00395435 -0.385216 0.199113
99 1 4.15014 1.94825 1.3468 -1.32773 1.41715 0.695967
823 1 6.54219 1.90313 2.36613 0.353108 1.60878 -1.47386
275 1 8.06454 0.807436 1.58547 -0.0355362 0.674813 0.952629
13 1 6.50801 0.836435 0.766154 0.290434 -1.41217 0.0232454
1312 1 7.44226 1.40781 2.85866 0.320504 0.448646 -0.775617
1197 1 8.76178 1.21483 0.704674 -0.839695 -1.44058 0.133843
957 1 7.67585 0.0779061 0.854849 -0.168928 0.400499 1.69932
445 1 10.9379 0.870307 1.9034 -0.262715 -0.0928258 -1.80509
348 1 8.7106 0.0126185 0.978257 0.30247 -1.30614 0.496128
60 1 10.4631 1.73894 3.6842 -0.32702 -0.000752926 0.444191
428 1 10.4831 11.8662 1.73552 1.14093 0.462974 0.294425
352 1 11.9425 1.00012 1.7817 0.167933 -0.8613 0.071524
945 1 11.3801 2.87683 1.37666 -2.3646 -0.361159 -0.343096
838 1 1.22722 2.41608 2.03397 -0.0713709 1.90249 -0.841705
751 1 11.6741 2.50031 3.03399 -0.0540566 -0.149732 0.977561
1036 1 1.70664 1.70794 2.76643 0.838437 1.44175 -0.709126
624 1 0.305121 1.86772 4.25602 0.0417953 -0.258994 -0.772283
648 1 4.54257 2.25993 2.68268 1.5671 0.290624 0.274106
762 1 4.49562 3.80996 1.35358 -0.840272 0.403046 -0.592147
470 1 7.52156 2.54986 2.51107 0.585375 0.674953 -0.194103
1360 1 5.98965 1.32431 1.72478 -0.359766 0.635789 -0.519971
972 1 5.64919 2.49322 1.3158 -1.19592 0.647044 -0.653506
166 1 4.73527 2.8446 0.836687 0.829847 0.565359 -1.5237
770 1 6.62682 3.75281 1.66701 1.91527 -0.319412 0.723192
112 1 6.83969 2.77753 1.70815 1.97714 -1.2095 0.354106
178 1 6.04782 2.88131 2.35518 0.405805 -1.33855 -0.801213
104 1 9.09028 1.07713 3.13747 -0.454945 1.17308 -0.716391
653 1 7.00115 1.10453 1.76821 -1.91344 -0.106558 -2.58385
296 1 8.65287 2.23331 3.54861 -0.137773 -1.44454 -1.24102
627 1 8.01226 1.84483 1.7483 -0.00653495 0.756744 0.132378
158 1 9.68275 2.45649 3.25909 1.56039 1.09229 0.965855
741 1 10.4223 4.3622 0.746317 0.922787 0.374899 -0.0736915
793 1 11.2842 2.168 0.377362 0.07227 1.02873 0.030134
924 1 10.6903 3.29594 2.01478 2.02103 -1.51748 0.598398
895 1 9.82741 3.76198 2.719 0.183532 -0.121781 1.14669
860 1 0.296856 5.2247 3.0019 0.153498 -0.330804 0.879077
958 1 0.210604 3.55033 1.39479 0.363553 0.66644 1.61797
423 1 0.866921 2.96495 3.58895 0.996606 -1.43643 -0.197762
870 1 3.31913 5.51573 1.39389 1.41291 -0.359165 0.502683
1166 1 0.734346 4.15229 2.37396 -0.630517 -0.0546404 -0.976083
482 1 3.39252 1.986 2.09142 1.95186 0.487442 -0.289656
93 1 1.6151 3.44352 2.60346 -0.578197 -0.604503 0.29991
1046 1 1.17522 5.39006 0.444608 0.109959 -0.262607 -0.448842
997 1 3.81779 2.93187 1.4398 0.561324 -0.822848 1.4576
119 1 3.26162 3.37206 2.13117 -0.935626 0.743228 -1.00036
735 1 3.32243 3.80095 1.00845 0.929446 2.27973 0.604845
489 1 6.36495 4.67511 2.84238 0.611351 1.065 0.538362
161 1 5.95378 4.9873 2.01432 0.276345 1.44453 0.442251
928 1 5.75898 3.91317 2.25213 -0.658475 0.977743 0.0966982
27 1 7.36182 4.48076 1.66796 0.174469 0.457007 0.257486
272 1 8.44366 2.87412 1.28713 -0.294889 0.190134 0.713876
919 1 10.3326 4.5477 1.7906 1.04591 0.361291 -1.18563
1118 1 9.90343 2.67743 1.44117 0.804622 -0.0192337 -0.337362
813 1 8.50841 2.74099 2.56132 -0.129692 0.0975892 -0.0827264
1310 1 11.195 3.82195 1.21401 -0.0822721 0.259539 -0.0831379
906 1 11.6206 5.91883 2.59333 -0.384632 -1.68482 0.364021
233 1 11.5742 4.26931 2.19241 -0.904307 -1.56351 1.10105
1020 1 1.40977 5.01913 1.69672 0.600954 -0.81022 -0.0449783
463 1 0.437479 3.9182 4.59096 0.596229 -0.0882982 -0.305487
1144 1 2.5089 6.31774 2.90025 0.0834889 0.73152 -0.345803
978 1 2.22229 5.77897 0.598957 -1.48059 -0.747899 -0.941548
703 1 1.67668 6.2296 2.28166 -0.444386 0.155845 -1.33008
1211 1 2.41675 4.03936 1.64288 0.139604 -0.164333 0.384211
118 1 3.70111 5.29512 2.57631 1.29507 0.223261 0.0302571
6 1 4.33789 6.24466 2.2038 -0.570507 0.526281 0.276267
506 1 4.9805 5.00455 2.93771 -0.526611 0.809343 0.147766
86 1 7.15499 5.31157 2.41781 1.89984 0.298384 0.351109
1198 1 8.02811 6.7638 1.44089 0.0667848 -0.161478 0.467996
796 1 7.94689 5.83426 2.00575 -0.814494 0.469029 0.701735
446 1 9.51808 5.45724 3.24038 0.0313996 0.616452 -0.357472
1101 1 7.94208 5.54044 0.83861 -2.08691 -0.00908241 -0.940922
577 1 10.3535 6.09209 3.16053 0.901749 0.581269 -0.783704
483 1 10.7336 5.56185 2.05133 -0.636306 0.737283 0.640238
1180 1 11.4405 7.14962 3.42783 1.46241 -1.34288 -0.556797
1006 1 10.4372 4.89437 2.85983 -0.788288 -1.44657 0.405114
398 1 0.212976 5.21531 1.86601 -0.601262 -2.14551 -1.34728
677 1 11.5496 6.21885 1.55344 -1.58436 1.13293 -2.12958
519 1 0.789031 8.02997 2.71298 1.41678 -1.25755 0.968032
876 1 3.90994 6.23668 4.01423 0.57988 0.745719 1.67195
322 1 2.00298 7.36423 1.20509 0.0719747 -0.427111 -0.96989
1109 1 2.56751 5.15639 2.02483 -0.571057 1.72121 -0.107381
1260 1 2.41062 7.23286 2.18838 1.15954 0.806137 -0.770661
505 1 4.47981 5.80061 3.15299 -0.135147 0.936856 -1.17856
169 1 4.34142 6.81053 3.08242 -1.01265 -0.696356 0.586583
1381 1 6.47694 6.07482 2.20116 -0.292609 -0.756752 1.91906
513 1 6.18042 5.71921 3.28019 0.506413 0.517505 1.92515
109 1 8.36476 5.80499 2.84741 0.339547 -0.0698608 0.772364
910 1 7.49031 6.71341 2.26359 0.24947 1.98987 -0.333293
510 1 9.58836 7.02799 1.26925 -1.13229 0.448402 -0.0921151
485 1 8.72827 6.55396 2.26143 -0.168805 0.159906 -1.30998
584 1 8.42722 7.52151 2.15609 0.0329559 -0.111293 1.46881
657 1 9.88711 6.3019 2.2122 0.541444 -1.17268 -0.960178
478 1 10.3969 7.3239 3.5581 -0.175427 0.87999 1.36847
1257 1 11.1548 6.88892 2.47492 -0.959249 1.24194 -0.367889
883 1 0.323802 6.97787 2.18512 -1.01957 -0.617146 2.15516
290 1 11.4853 8.72531 0.402308 -0.0709329 -1.70242 -0.764748
1185 1 2.69253 7.93855 3.12146 -1.1775 -0.75724 0.554099
512 1 3.14878 7.475 1.46061 -1.36902 -0.887725 -1.68568
1207 1 0.802324 7.15494 3.28633 -1.69014 1.3103 -1.47137
1158 1 2.59186 8.47414 2.04076 1.64752 -0.249527 -0.107274
490 1 3.17768 10.1014 2.84074 -1.19595 1.28591 0.0208974
1194 1 3.53782 7.58279 2.61558 0.376482 -0.363263 -1.57324
797 1 5.76272 7.14253 1.96605 0.775992 -1.09623 -0.0591272
747 1 5.06861 8.71462 2.85919 0.417062 1.39914 -1.17581
314 1 6.92526 8.46588 2.43489 1.77591 0.335575 -0.0968723
674 1 6.27164 10.2713 2.56885 -0.495495 1.31009 0.199173
380 1 5.70316 8.38805 1.92789 -1.07791 0.775829 1.16412
567 1 7.035 9.68252 2.09328 -0.8697 0.999783 1.37665
212 1 7.57554 7.68526 2.91391 -1.54388 0.342369 -1.34189
469 1 8.54432 7.75974 1.08188 0.78196 0.225906 1.17669
1358 1 8.66226 8.64038 1.62055 0.745455 0.609656 0.270383
859 1 9.67556 8.11421 1.95895 -0.0955857 1.51236 1.34888
299 1 8.55241 8.95273 0.661438 0.441354 -0.110364 -1.59319
244 1 11.151 9.76548 2.32035 -0.615912 -0.207922 0.0257321
189 1 10.2271 8.63253 1.1978 -0.507998 -1.21675 -0.188726
1103 1 0.142006 9.92555 3.51961 0.455734 1.36866 1.11649
1042 1 11.5833 8.08035 2.62484 -0.335342 0.899874 -1.36641
892 1 0.0566575 8.01032 3.69502 0.765191 0.0175833 2.53127
427 1 2.41911 8.66731 3.81499 0.936699 1.65436 -0.0146661
262 1 2.78002 9.01266 2.90033 -0.385161 -1.64859 -0.403514
67 1 4.24305 9.52119 3.30504 -0.806447 -0.555106 -0.371869
1274 1 3.78151 8.56137 2.93436 -1.96502 1.54495 0.871466
298 1 4.09622 9.34817 0.551009 0.320857 1.52787 0.438416
1003 1 3.52816 9.03196 3.84308 -0.521933 0.0430242 -0.208705
599 1 4.67325 8.48587 1.60428 -0.730387 -1.34895 0.0911328
1336 1 6.46194 9.05926 1.56977 1.45707 2.00398 -0.0526153
18 1 6.76006 11.9949 1.72337 1.48931 0.0739356 -1.57055
616 1 9.48886 9.35936 1.50524 -0.498281 0.724309 -0.549311
507 1 7.60168 10.6012 0.982583 -0.346382 0.483963 -1.36358
564 1 7.3387 10.5935 1.99892 -1.57355 -1.15994 0.604552
65 1 9.50873 8.92111 2.71204 -0.360715 -0.623687 0.467519
1370 1 11.6377 10.5548 2.58731 1.06914 0.918439 -0.801743
141 1 0.69773 10.6629 2.94704 -0.122833 -0.791803 0.432686
361 1 11.9923 9.83479 1.53362 0.106962 0.538479 0.280597
76 1 0.483454 10.6844 1.75896 0.467959 1.61563 1.14933
863 1 2.26488 9.74089 3.50876 1.04687 1.41484 -1.63228
654 1 2.23689 11.6275 2.564 1.85562 -0.248024 -0.0706091
1047 1 0.906207 0.350365 2.27605 0.499515 -2.10988 0.136514
1065 1 2.21159 11.4993 1.36116 -1.73107 2.38994 1.61227
844 1 4.73555 11.5762 3.24124 0.430702 -2.16347 -0.489701
650 1 3.48405 0.867059 2.78834 -0.396313 -0.796844 -0.337582
959 1 4.12484 11.8739 2.17764 -0.998215 0.661066 0.0404981
925 1 4.15882 10.4475 2.41474 -1.03336 -0.229886 0.249296
1313 1 5.49999 11.8619 2.2783 2.01685 0.562853 1.68458
353 1 4.33607 1.30593 3.34548 -0.92921 -0.355044 0.756246
310 1 5.29551 0.760674 3.00425 0.32897 -0.704628 -1.85467
197 1 6.40933 0.337241 2.8648 0.379894 0.180755 -0.144421
245 1 5.92999 11.1317 3.34738 -1.42288 -0.561136 0.05952
1346 1 6.81922 11.0695 1.19879 -0.277598 0.684751 -1.26843
357 1 7.21118 0.500706 3.37018 1.7321 -0.139213 -0.726472
802 1 8.0611 0.489767 2.57865 1.37897 0.146851 1.75393
114 1 8.69084 11.8723 2.05484 -1.14595 -1.48077 0.847929
659 1 10.5649 10.8199 2.33225 -0.0179159 0.13054 0.64445
788 1 11.0201 11.7215 2.66407 0.111398 -0.760419 -0.722471
190 1 9.91022 9.90779 2.7646 1.00302 -0.691131 -0.415422
401 1 11.1416 0.162125 6.55426 -1.3277 -0.695066 0.799795
923 1 0.663827 2.03246 3.07435 1.32859 0.562391 -2.71567
430 1 11.9259 0.480231 4.1437 -0.47683 -0.316909 -1.02716
611 1 1.74923 0.730415 1.70332 -0.812905 0.384347 1.07421
765 1 2.12494 1.49776 3.77352 -0.939685 1.53547 0.488849
866 1 2.84655 2.32483 3.97857 1.03689 -0.350398 0.783371
1129 1 4.73537 2.66226 3.78201 -0.82654 -2.90322 -0.0161054
96 1 3.95449 0.469219 5.7275 -1.62888 -0.452816 -0.969955
134 1 3.84613 0.597408 3.88604 -1.78075 -1.01865 -0.255827
683 1 6.2273 2.69896 4.68102 -0.576591 0.74547 -0.906461
756 1 6.44268 1.26144 3.54999 0.901521 -1.50539 -0.613307
1154 1 8.94907 1.4823 4.1813 -1.57221 0.278512 0.237147
1340 1 6.50074 2.37897 3.64676 1.60877 0.244973 0.663805
1334 1 7.42362 0.871722 4.31007 1.90828 0.616845 -0.861099
1157 1 6.96085 1.83484 4.61794 1.07102 -0.210712 1.13813
329 1 8.86941 1.16206 2.00356 -0.399138 0.533676 2.99989
1081 1 9.93216 0.931876 3.62435 1.83119 -1.44742 -0.280806
761 1 9.92128 11.3381 3.67943 -0.278392 0.605418 1.99464
1014 1 11.2426 1.87791 4.78617 0.77632 0.648071 -0.777185
1058 1 10.8506 1.17243 2.91863 -0.951353 0.88194 -0.282567
46 1 10.7803 0.056591 5.32219 0.420309 0.923385 0.430072
106 1 11.1883 0.952998 5.82447 -1.24243 -0.953684 -0.348286
865 1 10.921 0.266654 3.58425 -0.13068 -0.995238 -0.42406
1327 1 11.4289 3.8316 4.25612 -0.337459 -1.11427 0.823858
436 1 0.677601 3.19659 5.77764 0.763473 -0.240211 0.493555
72 1 2.23851 3.24141 4.50943 0.726777 0.00346322 0.247212
452 1 1.92056 3.66976 3.62097 0.50661 0.543828 0.25692
528 1 3.28155 1.48788 3.75595 0.313386 3.68825 -0.387211
387 1 5.58238 0.891345 4.11274 -0.538611 -0.68562 -0.978506
1375 1 2.60877 2.7446 2.7638 0.516316 -0.690442 -0.534274
784 1 5.50861 1.8527 3.60001 0.294423 0.161227 -1.66934
1163 1 6.38201 1.28753 5.62684 0.36515 -2.21741 -1.54447
1057 1 5.0493 3.0469 2.13693 -0.665248 -0.475147 0.283343
138 1 7.04361 2.29379 5.58302 -0.671735 -0.616025 1.89183
748 1 6.83085 3.35405 5.4146 0.499595 -1.48644 1.4346
687 1 10.0926 1.73677 2.15992 -1.22039 -2.03811 -0.608039
1137 1 8.60106 3.20739 4.35672 -0.60666 0.920958 -1.03305
601 1 7.3608 2.86691 4.32849 -2.46464 1.9787 -0.978704
1177 1 10.6182 2.85624 3.95722 -1.12914 1.26935 -1.37187
646 1 10.6856 2.5841 2.77637 -0.50937 0.0519583 0.324928
608 1 11.9414 2.8777 4.13911 1.11913 2.86664 -0.144028
665 1 10.7605 3.5092 3.20566 1.20493 -1.05579 0.46483
115 1 2.96522 3.43161 3.77241 0.832714 -0.70051 2.42317
240 1 3.8664 2.3456 4.10003 0.57839 1.20026 1.22002
689 1 1.56971 4.155 4.4217 0.764718 0.657361 0.164173
163 1 4.12249 3.30399 2.56376 0.138508 -0.726527 -0.454231
909 1 3.41049 4.11551 2.85198 -0.891541 -0.460806 0.716509
235 1 6.23601 3.68951 3.23056 -0.564916 -2.62946 0.561007
775 1 7.04586 3.81386 2.58375 -0.0844794 0.930488 0.775986
517 1 5.14595 3.90234 3.08571 -1.80898 1.57618 0.00721975
14 1 4.04022 3.45289 3.74677 1.53605 -0.250832 1.48502
205 1 4.41187 4.34872 2.41226 -0.789733 0.400291 -0.200507
631 1 7.99704 3.37769 3.39889 0.203266 -0.080939 0.183401
789 1 7.49634 4.90395 3.37296 -0.353783 -0.133522 0.822973
960 1 9.11407 4.31683 2.264 0.955583 -0.715041 1.21568
1226 1 8.13803 3.05443 5.25163 -1.06333 -0.0690906 0.313694
1128 1 8.01505 4.20568 4.09622 -0.431639 1.12745 0.573717
241 1 9.62101 3.201 4.47439 -2.13731 -0.0179619 1.41885
1326 1 8.20809 4.54778 5.26886 2.07385 -0.264944 0.42052
214 1 8.95704 5.33344 5.56994 0.705211 -0.464047 0.371537
853 1 11.4012 4.55011 3.43182 0.448507 1.24993 0.855719
1290 1 0.470453 3.03457 2.53541 0.189516 -1.54592 -0.457154
1229 1 10.5617 4.57102 4.61755 -0.933316 0.684244 -0.0349704
950 1 11.9507 3.70298 3.31133 0.441012 0.929935 -0.389723
733 1 1.03641 4.02976 3.45919 -2.28158 0.331723 -1.83223
335 1 0.303324 5.91237 4.66364 -0.761412 -0.134076 -1.30504
366 1 0.640664 6.06088 2.11538 0.512926 -1.16389 0.61067
556 1 0.427422 4.86823 3.95627 0.52763 -0.576344 -1.01911
305 1 2.25717 4.26229 2.70407 -1.04347 -0.716218 -0.605067
767 1 1.36084 5.4479 2.79271 1.49638 -0.389158 1.2086
363 1 4.42997 5.1276 4.44224 1.04495 0.108838 -0.554327
1022 1 2.53734 5.20194 3.00253 0.0406454 0.664759 -0.858563
374 1 3.30792 3.12262 4.76774 -0.703824 -0.53313 -0.273548
794 1 4.31212 4.43495 3.64439 -1.61618 1.85552 -1.15405
1333 1 3.51614 4.59101 1.83106 0.69556 0.581313 0.210513
1331 1 5.38996 5.71983 4.84672 -0.219992 1.82382 0.849495
297 1 6.0782 6.18292 5.36964 0.360819 1.72991 0.716491
52 1 5.55683 4.84636 3.91963 -0.984107 -1.8931 -0.418461
78 1 7.04337 4.02465 3.83709 0.308913 -0.207438 0.828979
570 1 10.2509 5.40518 1.14438 -1.45276 0.316707 -1.67516
830 1 7.42914 5.22664 4.39911 -0.845168 -0.253031 0.750478
1365 1 10.0033 4.18164 3.82338 -0.657838 -0.542954 0.459359
1186 1 10.3208 5.55234 4.17549 0.794815 -0.0465161 1.1301
1264 1 9.14667 5.93771 4.16229 1.413 0.405019 0.201206
1086 1 10.7465 5.22205 5.60704 0.355631 -0.348016 -0.587894
619 1 11.4717 5.58452 3.89083 -0.614327 -0.0159241 -0.142714
1044 1 10.738 6.40615 4.07317 0.38537 1.7251 0.069997
1125 1 0.563486 6.12314 3.36305 1.38739 1.66191 1.10444
444 1 2.37393 5.6581 4.02062 0.543884 -0.120206 0.00621635
1231 1 2.04117 6.62817 4.3627 1.7063 -1.31778 -0.837404
625 1 3.31247 5.30336 3.70381 0.66343 0.816481 -0.610167
985 1 3.97456 7.3652 4.78334 0.487069 -0.965344 0.477017
550 1 5.01202 7.01511 4.03082 -0.0212773 0.763165 -0.795481
885 1 5.37724 6.06933 3.84366 -1.39334 1.1487 -0.0419025
587 1 5.60631 6.71438 2.92206 -1.58334 -0.147455 -0.822936
1225 1 5.91521 7.90668 2.94538 2.12419 0.302776 1.18993
562 1 7.37452 5.95436 3.21972 0.56117 0.506786 0.446931
1176 1 6.84684 5.43046 5.2397 -0.637552 -0.908601 0.0414735
696 1 8.60824 4.90195 3.59226 2.17989 1.52128 1.4454
1289 1 7.68685 7.38391 3.90202 -1.74011 1.36589 -0.877701
752 1 7.79279 6.22662 4.1001 -1.75889 0.247137 0.684991
1246 1 8.11886 6.80581 3.14907 -1.2062 0.562321 1.02781
300 1 9.85019 6.77801 4.30304 -0.878189 0.0226149 -0.202264
236 1 10.1836 7.42068 2.5579 0.296186 0.624691 0.537162
429 1 8.75493 6.87408 4.0946 1.66491 -0.0891714 -1.92066
681 1 11.7495 6.89094 4.57363 0.802972 -0.943968 0.0846607
465 1 9.46604 6.6953 3.09764 -0.370674 -0.165933 -0.349944
1269 1 1.27551 8.60732 3.51672 1.6535 -0.316772 -0.798384
1102 1 1.20421 6.16037 4.1403 -0.0889102 -0.52726 -0.392756
126 1 0.713385 7.51838 4.32555 0.635859 -0.341278 -0.821713
1308 1 11.8412 7.97139 4.72913 -0.882714 1.39486 -0.507572
234 1 2.23708 7.59618 4.21863 0.608785 -1.07482 1.28798
787 1 3.1914 6.92167 3.35994 -1.15379 0.593373 1.57342
110 1 4.89164 7.68063 3.03023 0.391343 -0.351759 -1.14322
1325 1 4.64563 8.58843 3.91257 -0.799645 0.275364 -1.28378
108 1 4.14459 7.63387 3.68821 1.30987 0.67456 1.94479
525 1 7.20898 10.0546 3.11228 -1.1797 -0.193218 -0.0394502
1276 1 6.16683 9.1828 2.56113 -0.219859 1.50867 -2.20738
1139 1 8.11954 8.77559 4.15438 -1.81288 -0.00783195 -1.23587
255 1 8.36068 8.44676 2.79385 -0.763656 0.819385 0.0151106
48 1 7.03633 11.4059 2.88249 0.119282 0.509127 1.26741
1332 1 9.17158 7.70985 2.92662 -0.652215 -0.66278 -1.13746
1094 1 8.38809 9.87352 3.36114 0.367936 0.0480078 -0.971063
1278 1 9.57871 7.77655 3.91611 0.133752 0.619101 -0.345173
1148 1 9.54534 8.54554 4.63687 0.847226 -0.501485 -0.297537
561 1 10.9652 8.10583 3.78862 0.0371091 0.253913 -0.119446
868 1 0.271361 8.87884 4.17867 0.01858 0.990178 0.238459
170 1 10.7043 8.51947 4.76427 -0.070247 1.59183 -0.630747
821 1 1.1157 9.57899 3.12388 1.93307 2.19551 -0.696997
77 1 3.12644 10.0863 4.09777 -0.288188 0.171692 1.91157
983 1 3.2351 9.07221 4.81646 0.954814 -0.209171 -0.768272
406 1 1.62657 10.8604 3.2673 -1.21037 -1.25845 0.685139
147 1 1.92053 9.06848 4.74174 -0.604781 -1.16617 -0.383496
965 1 0.782096 11.9177 3.29423 0.803852 1.05947 0.73567
736 1 4.77513 9.53271 2.18947 -0.688132 0.69414 -0.108808
1038 1 4.88827 9.72842 4.25291 0.668323 -0.534347 -0.0671745
511 1 3.0019 10.8594 4.81829 -1.67909 -1.51604 0.332576
33 1 3.85078 10.5229 3.56826 0.539506 0.280146 -0.0828884
350 1 6.29721 10.2474 3.8746 -0.444698 0.447153 -1.61745
217 1 5.18415 10.9429 4.04553 -1.02381 -0.367823 -1.21404
157 1 4.78819 10.3382 3.30634 1.03802 0.583608 -1.4543
1252 1 5.61799 9.70161 1.52533 -0.884991 1.73801 -0.180847
1227 1 7.84936 10.7353 3.72748 -0.629642 0.743656 1.46253
1178 1 6.71874 9.96024 1.09163 -1.76695 -1.57893 -0.835844
792 1 7.99652 9.70285 1.53512 0.81084 0.477961 -1.12819
524 1 9.3722 10.762 3.1298 0.350991 -0.553758 -1.37382
59 1 9.0697 10.3147 4.15163 -0.307005 -0.98163 -0.408982
1382 1 8.99779 9.79247 2.25559 -1.39264 0.789322 1.22041
175 1 10.459 8.41535 2.81316 -2.13851 0.937305 0.513604
991 1 9.5066 10.9056 1.96204 0.717004 -0.774516 0.12578
1076 1 10.7045 9.5584 4.62819 1.79572 2.5982 0.156688
259 1 11.7384 9.20327 4.90113 -0.27201 2.09807 -0.671722
894 1 11.1974 9.64661 3.39793 0.103278 -1.64533 0.577882
330 1 10.8968 8.13322 1.77002 0.160724 0.587174 -0.920116
667 1 0.872952 10.9666 3.93726 0.479284 -0.876586 -1.48168
1339 1 0.243891 11.5405 2.50497 -0.714275 0.359719 -1.91944
669 1 11.9226 11.3464 3.64734 1.86455 1.51054 -0.137676
773 1 2.20723 11.5209 4.24173 1.27887 2.3017 0.211019
889 1 0.276935 11.4401 4.64277 -0.289331 -1.54006 0.101163
1007 1 2.83455 0.237644 3.62266 0.197046 0.826216 -0.101626
827 1 2.36724 0.731142 2.58176 1.92811 0.707341 0.428386
1067 1 2.81851 10.9754 3.45359 0.275376 0.747443 -0.960263
968 1 4.52154 11.9234 4.3912 0.511675 1.14643 -0.757981
144 1 3.39667 11.9808 4.8843 1.00971 -0.045421 0.441698
1184 1 5.45175 11.8784 3.93802 0.556897 0.181436 2.25966
258 1 6.58183 11.9822 4.05344 -0.18134 0.49286 -1.05336
867 1 6.25678 11.1745 4.83325 1.43661 -0.882975 -0.140303
1212 1 7.05755 11.0875 4.09127 -0.344304 0.32984 -0.334242
922 1 8.17328 11.6289 3.22512 0.587668 1.01079 -0.114058
962 1 8.35948 10.769 2.65035 0.576232 -0.580509 0.88059
193 1 8.24626 0.758872 3.57154 0.640443 0.509956 -0.84524
743 1 10.1392 0.348646 2.71532 -1.70774 -1.10267 -2.27415
901 1 9.2376 0.0346573 3.12931 0.76564 -0.622494 -0.337842
407 1 10.5111 1.05936 4.6458 0.1197 -0.526122 0.184217
977 1 11.8146 1.31924 3.56772 1.28901 0.192339 -1.82138
426 1 11.7466 0.218535 5.15729 0.316395 1.0448 1.57615
91 1 0.0435131 1.53996 5.5848 -0.495062 -0.176066 1.34504
276 1 1.05028 0.306995 6.75286 -0.294882 -0.691273 -0.503272
1082 1 1.0589 0.0632608 4.33042 -1.47653 0.303158 1.30537
1120 1 0.903363 0.360902 5.59119 -0.484301 -2.15767 1.62587
963 1 3.70577 1.19324 4.81351 0.20413 1.03249 1.35901
155 1 1.86353 0.533303 5.85155 0.0898408 -1.3452 -0.993387
668 1 3.22692 0.238403 6.51909 -0.779749 0.908837 -1.67846
128 1 6.3706 0.812836 4.72251 -0.428515 0.223298 -0.236063
822 1 6.19804 0.92106 6.63756 -1.38381 1.22933 -0.305805
185 1 5.15158 11.3591 6.44528 -0.641118 -0.132665 -0.760273
537 1 7.86084 0.646478 6.19494 1.50628 1.59879 1.00172
544 1 7.70362 1.82664 3.77255 0.261763 0.347797 -0.170605
107 1 7.45559 11.3311 6.19124 -0.105077 -0.707913 1.55547
332 1 9.09531 2.50707 5.19556 0.0059693 -1.02171 -1.15399
590 1 10.1494 0.812605 5.58375 -1.14404 -0.700994 0.559589
1322 1 9.74619 1.92044 6.11006 -0.984369 0.264162 -0.0632901
316 1 10.4526 2.2295 5.53524 0.208363 1.12404 1.00667
418 1 0.711275 2.2154 5.27073 -0.293517 -0.307146 0.219339
1117 1 1.75422 2.24977 4.37459 -0.891624 -1.10898 0.129498
711 1 1.10424 1.39006 6.18978 -0.0330118 -0.106421 -0.241313
1164 1 1.69964 2.65187 5.80124 -0.425657 1.39278 -0.39515
543 1 0.46596 2.16652 6.34252 -0.37869 1.75775 1.22122
1305 1 0.821593 1.15112 4.92705 -0.969197 -0.573182 0.346505
1153 1 3.59531 2.59784 3.06518 1.55732 -0.793541 0.386755
1368 1 4.60069 1.60151 4.42353 -0.467119 2.15947 0.702314
1299 1 5.59003 3.16701 3.92971 -0.622695 0.0797916 -0.425705
890 1 4.6404 0.816826 5.10185 -1.43709 -1.13054 -1.93347
1182 1 5.58866 1.53247 5.00213 1.66519 1.06809 0.588351
573 1 7.3581 0.890334 5.30289 0.330591 -1.04235 0.712068
874 1 7.1528 1.46153 6.26691 -0.277525 2.11469 -1.13107
639 1 8.17634 1.70479 7.11205 0.723644 0.162227 0.647161
776 1 8.06616 1.81098 5.17648 0.981528 1.83572 1.23963
304 1 9.94009 2.11996 4.6424 0.398207 1.31524 -0.823541
459 1 8.75636 1.06839 6.08277 -1.22152 0.216582 -1.84943
191 1 9.15467 0.638484 8.08014 1.8961 0.397041 -1.23205
327 1 9.1198 2.21235 7.09221 1.43127 -1.65637 1.28186
162 1 9.02913 3.63345 5.1847 -1.28344 -1.6638 1.05645
622 1 11.7902 2.83127 5.27046 -0.632894 -0.45699 1.13635
1040 1 11.1399 2.24733 6.20734 -0.17697 -1.04605 0.942977
1172 1 1.56587 3.72386 5.49526 -0.420295 -1.71195 -1.18242
610 1 1.06056 2.97379 4.7081 0.657628 -0.217412 0.0471171
39 1 2.18833 3.84049 6.42027 -0.824426 -0.59451 0.311019
216 1 2.55967 4.43355 3.82823 1.85272 0.292397 0.326535
692 1 2.56584 1.37962 4.83363 -0.901729 -0.030009 -0.589188
254 1 3.23008 2.09529 5.11829 0.32463 -0.416697 1.2093
673 1 5.19101 2.38463 4.80125 1.86948 -0.0210836 -0.730318
966 1 5.1765 3.50443 5.70648 -1.13012 -1.54676 0.823355
1025 1 3.51526 4.88579 5.01824 1.01556 -0.972237 -1.14642
1347 1 6.15713 3.14219 6.26715 0.814395 0.786532 -1.6839
935 1 6.24469 3.79497 4.60352 0.609588 1.19305 0.299451
804 1 7.33154 3.07736 6.38035 0.934917 1.11515 0.99524
1032 1 8.38411 2.17505 6.08501 -0.00864905 1.63069 0.246391
780 1 9.45074 4.76713 4.72723 1.02453 0.50823 -0.28625
73 1 10.7186 3.25 4.87834 -0.105361 0.109066 0.161208
1319 1 11.7405 3.85569 5.35098 -0.856467 0.320737 2.11766
871 1 10.9349 3.25308 5.96749 -1.17449 1.45651 0.745879
1357 1 1.16164 6.89287 4.87293 -2.84855 2.97415 1.687
976 1 1.22174 6.39062 5.79601 0.990195 1.4092 -0.695501
496 1 0.915414 5.37286 5.66092 -1.61422 1.70284 0.236566
411 1 1.86876 4.70425 5.6592 0.34151 -1.33046 0.946344
817 1 1.61736 5.27235 6.54623 -1.25152 0.457138 1.46282
213 1 1.53025 5.0002 3.67262 0.546427 -1.20086 0.339127
731 1 1.36692 5.18674 4.74084 1.1869 1.24023 -2.92941
782 1 3.49734 4.08397 4.3449 -1.05157 -2.05042 -0.0171754
1209 1 2.91623 5.82995 4.86786 0.592989 -1.25764 -2.61988
484 1 2.46407 4.93521 4.70918 -1.63342 1.05393 0.623715
843 1 6.08335 4.8662 4.7979 0.671755 0.988814 0.220216
575 1 6.0804 4.03541 5.65632 -0.530656 0.953776 -0.145736
420 1 4.90536 6.59045 4.98874 -2.38534 -1.4809 1.38196
834 1 6.91449 4.40369 5.00497 1.23645 -1.88432 1.00126
995 1 7.59979 4.71357 5.99628 -0.105077 -0.314013 1.24448
613 1 8.83061 5.83404 6.48132 0.0478132 0.201259 -0.630964
629 1 8.45415 4.64165 6.47496 0.398896 -0.488061 1.31819
198 1 10.3351 4.11055 5.52468 0.332061 0.500674 -1.93071
824 1 8.44073 5.53541 4.71662 -0.423009 1.36378 2.37091
704 1 10.6484 5.92806 7.70792 -0.795072 0.491348 -0.117476
746 1 11.6425 5.05306 4.74994 -2.10304 0.437079 -0.0282582
286 1 2.58702 6.70588 5.45013 0.712212 -0.0705306 1.64519
19 1 2.16151 6.92797 6.63894 -1.32808 -0.0505631 -2.41601
908 1 3.02974 6.82421 4.45823 0.759545 1.87066 0.523828
1314 1 0.864371 5.16746 7.41798 -0.790535 0.185692 0.690457
688 1 4.94059 8.02701 4.67242 -0.425735 -0.353451 0.58819
501 1 2.57981 5.65442 6.35555 1.33167 0.636959 -0.585438
180 1 3.64091 6.53106 5.51262 0.371736 -0.164421 0.805924
555 1 4.47273 7.45506 5.70048 0.640494 -0.0126496 1.74151
227 1 6.30788 7.217 3.71033 2.01729 0.428515 -2.11702
1223 1 6.59827 5.86998 4.16302 -1.40857 -1.89043 -1.50625
441 1 7.45642 9.0399 3.4137 0.93616 0.786964 0.795747
323 1 6.93303 8.10576 3.67224 -0.316001 -0.113165 -0.2162
1085 1 6.0162 6.00789 6.66819 -0.0982126 -1.50617 -0.250669
7 1 8.15439 7.54702 4.76359 0.700215 0.148939 -1.19834
580 1 7.50761 6.55933 5.0176 -0.838875 -0.135927 -1.88431
1010 1 7.86969 5.72007 5.64678 -0.255297 2.34834 1.20031
1234 1 9.48035 6.20217 5.47048 1.20661 1.25033 -0.17214
47 1 10.7359 7.48629 4.70588 0.545149 -0.833584 0.931924
1359 1 11.727 7.44103 5.57556 0.483942 0.144201 -0.237691
24 1 11.3004 6.04597 5.01816 -0.824492 -0.875274 0.313441
1165 1 9.08842 7.13398 6.08189 0.791126 -1.29617 0.782995
726 1 0.757343 8.30918 5.4576 -0.765845 0.231065 1.12884
897 1 10.6751 7.94545 5.75123 -0.77283 0.877994 -0.923992
566 1 1.91917 7.01467 3.29938 -2.1244 0.684473 1.39238
820 1 1.39073 8.83243 6.83687 -0.189669 0.613642 0.870713
417 1 2.96823 7.38881 6.1237 -0.103221 0.817365 1.11002
102 1 3.20324 6.44778 6.71046 -0.490458 -0.181039 -1.27399
848 1 3.59254 8.14941 5.42592 -0.760231 -2.41363 -0.0897868
1175 1 3.42965 8.17884 4.38024 -1.17511 0.703967 0.848906
1324 1 5.67864 8.6343 3.714 -0.0147207 0.542008 0.448742
644 1 5.64832 9.24595 4.74369 -0.429512 -0.454329 -0.206832
1011 1 5.78273 8.40018 6.22732 0.0683469 -1.47171 -3.02116
929 1 4.21838 8.72398 4.85725 1.23312 1.11523 -0.389333
877 1 5.95921 7.86181 4.42559 -0.752419 -0.451948 0.680313
534 1 5.53577 7.57583 5.51434 -1.62635 0.517007 -0.122398
21 1 6.56483 7.20964 4.90191 -2.03439 0.000683162 0.0509445
378 1 8.56975 7.87857 3.83315 0.796691 1.40341 0.367096
818 1 10.3893 8.81657 6.89829 1.23917 -0.241923 0.0846584
1244 1 9.71599 8.34713 5.82925 0.169665 -1.1479 0.753287
774 1 9.8037 9.4404 6.16661 -0.599301 2.01015 -0.795567
905 1 9.38725 7.50656 4.93248 0.185181 0.506347 -0.257515
635 1 10.4257 9.02332 3.86301 0.185607 -0.299946 -0.652495
1104 1 10.1143 7.11256 5.60397 0.941023 1.18956 -0.282131
943 1 9.6598 9.73596 4.94753 -0.946195 0.399178 -0.835965
70 1 11.6596 8.54799 5.84981 -1.6199 0.516412 -1.25097
347 1 1.39257 9.75079 4.06015 -0.0673786 -0.577531 -0.820202
386 1 1.43528 8.14781 4.72544 -0.765449 -0.348757 1.25179
921 1 1.43097 11.5107 5.13425 1.03212 0.614327 -0.17586
295 1 2.35146 8.15384 5.28894 0.190428 0.260564 -0.759949
676 1 3.9713 9.81112 4.60897 1.4078 0.0907958 -0.806298
116 1 4.67297 8.3565 6.20887 -0.617478 0.723471 0.859079
1374 1 3.54664 10.1455 5.47731 0.498831 1.33727 1.33646
160 1 2.49367 8.39618 6.27333 1.23482 0.530401 -0.286723
1335 1 4.1265 10.8685 4.84335 -0.593822 0.500335 -0.610813
239 1 4.83004 9.85177 5.31461 -0.449544 -0.115291 0.545887
1155 1 5.96137 10.081 5.23226 -0.102489 0.667426 -0.657264
1142 1 6.72756 9.15443 4.42505 0.636376 -1.48305 0.0748088
292 1 7.04935 9.43963 5.46993 0.00961411 -2.72032 2.56064
494 1 5.51956 9.72604 3.26823 -0.450825 1.53153 -1.06458
315 1 8.12054 9.37212 2.54864 0.431994 -0.22381 -0.833439
1369 1 9.27888 10.4298 5.78215 1.33875 -0.524528 1.25392
1262 1 7.97699 9.19734 6.35534 0.138357 -0.976186 0.706004
979 1 8.85817 11.2959 3.81651 -0.438982 -1.05319 0.243134
149 1 9.18171 8.83239 3.65523 -1.3524 -0.92936 1.25241
373 1 8.69376 9.49147 4.80168 -2.26101 -0.422691 -1.22869
1156 1 10.0421 9.9724 3.75001 -0.678489 -1.61297 -0.0591197
358 1 0.859978 9.27519 4.92304 -0.479063 1.12387 -1.93426
578 1 11.47 10.5433 4.30913 -1.65292 -0.49857 0.675986
1108 1 10.8442 10.2687 5.69251 0.885787 0.590031 -0.270805
447 1 11.8415 9.92619 5.77212 -0.331803 -1.86202 -0.572284
395 1 1.55486 10.312 5.49925 -0.380065 -0.371492 2.0213
20 1 2.48999 11.7003 5.31018 -0.195038 0.601097 -0.962517
195 1 11.9495 11.7355 6.06625 0.364168 -0.400442 1.67471
1071 1 2.1401 10.4372 4.29483 -1.2475 -0.852185 0.716454
376 1 2.13204 0.47502 4.79845 -0.695267 0.12885 -1.08798
98 1 3.39796 11.3151 5.6672 1.00441 0.794547 -0.37723
640 1 2.8544 0.688749 5.51998 -0.0394689 -0.0839042 -0.969927
319 1 4.04942 11.6273 6.41367 -1.8623 -1.02674 0.0980574
1254 1 4.59912 11.7877 5.52609 -1.08404 0.174429 0.0174924
522 1 5.2218 11.0708 5.08046 1.38874 -0.135585 0.0170067
826 1 5.88968 11.4749 5.76906 -0.456021 -1.17866 0.199991
291 1 5.60102 0.302465 5.06372 -0.56005 -0.109721 -0.528968
825 1 7.58117 9.82223 4.05769 1.98899 0.464436 0.539103
1112 1 8.05909 11.91 5.40468 1.89434 -0.559678 -0.866956
148 1 6.95385 10.3924 4.99246 -1.33988 -0.688175 -1.55014
1320 1 7.83447 10.9143 4.93958 0.849827 -0.741436 -1.03387
740 1 8.49321 11.066 5.73295 0.439808 -0.362908 -1.68951
1265 1 8.28923 0.926117 4.84307 2.27993 -0.827582 0.0588413
288 1 9.08385 11.4702 4.83503 0.0309021 -0.66495 1.11135
1008 1 9.16541 0.343111 4.20272 0.441551 0.469331 -1.95628
750 1 10.9009 11.3884 4.29063 0.781618 -1.38097 0.0776109
293 1 10.8408 10.7868 3.32923 -0.181923 -1.91581 1.75734
34 1 9.98646 11.8952 4.72577 1.26925 0.539443 -0.480298
698 1 0.319811 11.2678 6.99671 0.0849079 0.652639 0.130709
948 1 1.3458 11.3807 6.63512 1.0519 1.67294 -0.711967
1210 1 1.87223 0.196373 8.51117 -0.0347729 -0.140299 1.43232
1267 1 2.1911 10.6976 7.12783 1.33483 -0.24859 -1.7026
1199 1 2.14381 0.25868 7.56943 -1.06855 -0.423443 -0.412114
1300 1 2.41999 0.952879 6.64035 -0.142698 -0.462155 1.02391
666 1 2.15788 2.02362 6.79751 2.40168 -0.119269 -0.705004
742 1 2.34052 11.6531 6.45918 1.76316 1.20447 -1.06513
744 1 4.71077 0.730002 6.77824 -0.637655 0.500436 0.0928518
410 1 4.41978 1.88254 5.61806 -0.0888549 0.126275 0.35949
605 1 5.56791 11.2358 7.50909 1.07592 -0.0336111 -0.374494
754 1 4.64868 11.7811 7.4953 -1.04514 -0.861891 -0.0324507
861 1 8.54081 0.700005 7.24262 1.12031 -0.513897 0.688281
1213 1 5.6312 1.48004 8.63978 1.10703 -0.917646 -0.768412
130 1 7.34042 2.11649 7.98947 -1.00741 -1.88702 -1.00822
1090 1 6.6977 0.205621 6.02215 -0.284119 1.0322 -0.420632
738 1 7.97876 11.6431 7.44654 -0.732084 -1.10279 -1.30616
1053 1 9.38587 1.43586 5.1654 1.13577 -0.60552 0.620444
1110 1 9.65043 1.14528 6.99426 0.932232 1.31686 -2.14059
1280 1 10.1386 0.389307 6.58525 -0.925725 0.240409 0.445973
706 1 9.092 11.8225 7.40788 -0.824567 -0.437099 0.0928052
280 1 10.9028 1.14912 6.94447 -1.13966 -1.17091 0.266679
228 1 11.3117 11.5405 7.38517 1.03199 0.178813 0.585036
58 1 9.22736 0.398156 5.31725 -0.910152 -0.102271 -0.0742112
1283 1 0.0780584 1.19231 6.53977 -1.42385 -2.31625 0.394704
1361 1 1.99383 1.27962 7.79955 -1.26904 -0.305085 0.0922424
232 1 1.07695 1.41762 7.15666 0.700355 -0.570518 0.335499
466 1 11.1191 3.89404 7.52088 0.0708404 -0.421795 -0.149938
124 1 11.9529 3.00368 6.65719 -0.949498 0.548253 -0.761873
1043 1 2.80085 2.92095 5.66854 0.589453 0.731593 -0.0266155
1344 1 2.06699 1.56103 5.85256 0.954826 -0.372407 -0.16872
952 1 3.6144 1.22643 6.26991 -1.01181 1.07954 -0.4905
1342 1 3.70797 0.853623 7.33014 -1.0555 1.80407 0.260697
1061 1 3.47748 2.2414 6.11663 -0.580722 -1.16797 1.76978
1296 1 5.34391 0.336323 6.08493 0.6359 -1.03584 0.854295
1232 1 4.93581 1.13805 7.88865 -1.3139 0.5152 0.139969
1293 1 6.93206 4.03352 6.63 0.062042 -1.09642 1.78425
662 1 6.13149 1.90505 7.68153 0.0732426 -2.25639 0.240176
103 1 10.276 2.10814 7.6153 0.0272012 1.08065 -0.822551
247 1 10.2599 2.66378 6.69019 -0.400568 -0.11433 1.65111
579 1 10.2706 0.363293 7.69443 0.302077 -0.841311 -0.406628
932 1 9.2748 2.68319 8.0208 -0.0228713 -0.621168 0.379287
90 1 9.74679 3.2227 5.74638 0.920515 1.04273 0.416423
1241 1 11.3845 2.32774 7.31103 1.01752 -1.52536 -0.144888
84 1 2.60075 4.01001 5.3544 1.36827 -0.460177 0.971127
342 1 11.7812 4.11983 6.3318 0.021933 -0.308871 0.451721
643 1 1.18677 3.55161 6.51087 -0.584302 0.0766596 -1.38954
81 1 4.31012 2.79545 5.99914 0.896313 -0.0472655 -1.17793
917 1 2.38761 4.66216 7.15398 1.51837 -2.14237 1.60682
1230 1 4.44119 2.86916 6.96728 0.483279 -0.283344 0.140615
1259 1 4.04933 3.74376 5.5259 -0.637033 -0.39938 -0.482895
68 1 4.70151 4.06899 6.93833 0.321655 0.733035 -0.0432741
22 1 6.26208 2.06607 6.49174 0.474236 0.107007 -0.948386
351 1 4.73743 3.76659 4.45269 0.0857853 -1.10335 0.534288
1091 1 6.03988 3.35424 7.36869 -1.34307 -0.467584 -0.479789
1258 1 7.6662 5.55399 6.69967 -0.764423 -0.421859 -0.84136
1317 1 8.45231 2.96276 6.91047 0.191748 0.133385 -0.522715
1248 1 8.74205 3.96497 7.21125 -1.61982 -0.673498 -0.555059
337 1 7.04303 2.34502 7.01696 1.21443 -0.707905 1.15751
356 1 8.16201 3.75951 6.18852 -2.63606 0.901732 -1.1833
339 1 11.0231 4.91585 6.6265 -0.784789 1.70283 -0.126959
878 1 9.56755 4.09568 7.91342 0.980114 0.334212 0.160091
11 1 0.701042 4.2493 5.62787 -0.756963 0.0576336 -0.517536
1066 1 9.321 1.63086 8.06227 -0.09186 -0.258749 -0.960099
177 1 10.4303 4.0645 6.72127 -1.58149 0.61109 0.124522
284 1 10.6906 4.06516 8.67532 0.0848805 0.720618 -0.194084
1251 1 11.7572 5.14653 5.6897 -0.944568 0.627979 0.113927
146 1 11.5423 6.53979 8.16985 -0.396807 0.294694 -0.700424
1134 1 0.846244 4.57783 6.50851 -1.44996 -1.02327 1.68363
772 1 3.05407 4.61542 6.06749 -2.01181 0.201827 0.555136
527 1 1.89932 5.33613 7.75345 0.135532 0.259471 0.878616
984 1 4.34314 2.85682 4.93739 -0.249501 -0.270584 -0.416307
454 1 4.2993 4.75134 6.43712 0.335253 -1.6568 -0.345988
174 1 4.35765 5.57976 5.41515 -0.557862 0.465735 -1.2359
221 1 3.00957 5.61299 7.30498 -0.609479 1.46541 1.25827
317 1 5.14923 4.60803 5.55813 0.526888 0.691706 0.323185
222 1 5.15353 6.3295 5.90019 -0.135781 -3.12357 -0.102796
716 1 5.39164 4.41569 7.74896 0.343691 -0.708386 -0.172712
1273 1 5.85848 4.16295 6.68785 1.30563 0.688676 0.792309
1309 1 6.06665 5.05757 5.84359 -0.524203 -0.725134 -0.280152
971 1 7.51203 3.46841 7.44871 -1.14522 -1.30007 1.26743
51 1 8.51616 6.5414 5.34141 -0.489403 0.320676 -1.60278
269 1 8.19696 5.44464 7.51599 -0.561281 -1.01321 -0.379636
250 1 10.7725 5.85419 6.48414 1.05664 -0.190021 0.294088
516 1 9.11701 5.02739 7.10383 -0.734852 1.7784 0.866567
881 1 10.1493 5.00389 7.30866 0.618969 -0.951408 1.35171
808 1 0.0965577 6.50021 5.48693 -0.62346 0.185304 -1.47475
893 1 0.722374 7.3174 5.77836 0.519656 1.71719 -1.05925
583 1 0.853731 6.19013 6.88627 0.737386 -0.127611 1.10952
1235 1 11.524 6.29914 7.11832 -0.102156 -1.00247 1.92946
777 1 1.97581 5.7917 5.38617 0.280948 -0.154449 0.420374
992 1 1.06566 7.29707 6.77272 0.447054 0.728111 -0.60374
858 1 4.58755 7.33767 7.38234 0.499795 0.607893 -0.898329
691 1 3.81691 5.60594 6.51473 1.49388 0.422624 0.463749
1352 1 4.2144 6.68044 6.48144 -0.057871 0.892428 0.793702
472 1 5.37132 8.42179 7.12572 -1.23382 0.15802 -0.468574
139 1 6.68533 5.32062 6.80153 -1.76231 0.221096 -0.237773
559 1 6.39445 8.2346 7.09186 -0.969022 -0.47328 1.08813
982 1 6.16614 6.96709 7.10894 -0.268925 1.5204 -0.431342
320 1 6.91768 6.11712 6.04029 -1.09021 0.288365 -1.22146
1183 1 6.98994 8.60277 6.13171 -0.453784 0.779392 -0.739825
264 1 9.82135 5.22053 6.22237 -1.3996 -1.0245 -0.628575
615 1 9.87767 6.35404 6.47402 -0.534726 1.48636 -0.587678
602 1 7.95854 6.71617 6.18929 1.66472 0.130939 0.944649
649 1 6.61209 7.66735 5.76173 -0.750685 -0.348176 -0.507415
421 1 11.1093 6.77406 6.1479 1.8324 -0.913635 -0.0802391
1056 1 9.91829 7.50223 6.57785 1.33175 1.06981 0.407258
763 1 1.64802 7.93963 6.21065 -0.540626 -0.543445 1.2502
1356 1 0.753659 9.25888 6.01631 -0.0375891 0.54944 0.0695756
1073 1 11.5135 7.57227 7.48128 -0.0454375 -0.657504 -1.98388
637 1 1.91318 9.68981 7.53174 -0.0664871 -0.623332 -0.172421
42 1 2.62074 7.59749 7.11944 1.4096 0.20667 1.39353
1097 1 3.80578 7.83862 6.55631 -0.448875 -0.0717646 0.537042
69 1 3.65939 7.6809 8.02797 0.868521 0.670652 0.0356616
1151 1 4.23392 8.40452 7.21034 -0.908035 -0.47021 0.44472
835 1 4.45372 8.26781 8.31734 0.556474 0.496659 1.28913
1292 1 5.3733 7.33109 6.50545 -0.547547 -1.32658 -0.864
32 1 4.59169 9.35969 6.50751 -0.605129 0.52004 -0.177062
41 1 7.73298 9.12246 4.924 -2.67946 0.271065 1.36151
1380 1 5.69556 6.66366 8.32689 -0.150857 0.021532 0.548695
969 1 7.44123 8.23156 7.53946 -0.380462 -0.718292 0.33878
633 1 6.54082 9.25915 6.97322 0.805167 -0.691274 -0.493404
614 1 8.53165 8.76988 5.592 -0.700806 0.336721 0.137412
268 1 8.02432 7.8366 5.91072 -0.716599 -0.316708 1.25868
552 1 7.16182 8.14386 4.79964 0.280036 -0.36751 0.2078
257 1 8.82538 9.82499 6.46355 0.152625 -0.547584 -1.15749
1379 1 8.92608 8.22956 6.43885 -0.66337 -0.91017 -0.453442
1130 1 8.41117 8.56003 7.23108 -1.27026 1.02355 0.246641
1282 1 9.43578 9.13478 7.27313 -1.70834 1.22073 -1.0672
375 1 12.0255 7.22558 6.62093 1.77976 -1.09673 0.0229296
263 1 10.7623 8.96493 5.8301 0.880762 -2.42674 0.0508771
607 1 0.397874 8.282 6.74773 0.514425 1.53206 0.389842
1187 1 1.68831 8.93353 5.8386 1.00309 -0.994291 1.39533
389 1 0.683701 10.7036 5.87373 -1.11673 -0.249559 -1.00432
1023 1 1.4805 9.94115 6.65945 -0.175773 0.0354577 -0.40321
274 1 2.85275 9.73378 6.96138 -0.542646 -1.94905 -0.0330136
343 1 3.68117 10.122 6.5167 -0.50236 0.0397974 -0.789284
916 1 3.33012 8.80806 6.6283 -1.42217 -0.419257 -1.19835
1030 1 3.70303 9.36182 8.31765 0.398813 -0.267965 -0.988401
718 1 2.7302 9.54927 5.78951 -1.14791 -0.897443 -0.623885
476 1 3.81717 9.14449 5.73591 0.940283 1.41754 0.370874
617 1 4.54414 9.28714 7.66996 1.51503 -0.449214 0.7608
1188 1 5.38655 9.58667 7.082 -0.249456 0.599378 -0.219629
1338 1 5.75394 9.3468 6.01601 0.639047 1.03188 -0.960194
970 1 6.24744 8.73681 5.30676 1.57946 0.224441 -0.723644
1311 1 6.23101 10.3211 7.18727 -1.09457 1.57015 0.00928531
415 1 7.13791 10.1925 6.80386 -0.800598 1.09597 0.850928
1173 1 8.44867 9.81175 7.44654 -0.974382 1.04983 0.681067
3 1 10.9167 9.62173 6.65448 -0.863895 0.594301 -3.43908
1145 1 9.97736 10.6989 4.97002 1.01726 0.0688745 1.98063
591 1 11.9707 9.76406 6.75769 -0.015078 -0.068327 -0.739285
1285 1 0.689499 10.5303 4.8315 -0.410785 -0.367179 -0.0585929
701 1 1.1631 10.7035 7.35921 -0.281705 -0.164966 0.92844
440 1 2.50404 10.6081 6.08257 0.205202 1.38954 1.3128
88 1 2.88033 11.7178 8.5262 -0.0426245 1.1663 0.423245
1083 1 1.18952 11.8189 7.71356 0.425843 -0.659096 -1.0062
828 1 3.99401 11.0382 7.63379 2.3012 0.806894 1.16929
944 1 3.69392 10.0124 7.47964 -2.16229 0.485812 1.98081
397 1 3.18566 10.9165 6.94181 -0.0932485 1.40238 -0.808158
598 1 4.67087 10.4107 7.21845 0.294512 -2.31874 -0.848501
589 1 4.48793 10.8693 5.90596 -0.784392 0.530316 0.8154
388 1 5.24459 10.2178 6.24483 -0.427179 -1.27893 0.2656
287 1 5.51169 0.191745 7.12778 0.422924 0.124516 -0.141319
988 1 7.01364 11.7267 5.11 0.585284 -0.824101 0.432713
1345 1 6.46691 10.666 6.06655 -0.205777 0.335119 -0.294791
806 1 7.02672 11.2535 7.48575 -0.248118 -0.520851 -0.892713
955 1 7.66564 10.3706 7.88014 0.66186 -0.987524 -0.0800965
618 1 8.16054 10.0473 5.63254 0.458448 -0.461985 -0.251315
393 1 7.94066 11.8764 4.36729 -0.142884 -0.512697 -2.34908
154 1 8.09218 10.7736 6.93735 -0.532989 0.875711 -0.704729
713 1 10.9538 10.4539 7.3133 0.597357 2.66173 -0.663945
111 1 8.72876 11.9387 6.40834 2.84775 0.604009 1.05336
256 1 9.48136 11.5969 5.88341 0.796322 -0.358209 -0.424755
1074 1 9.0566 10.8969 6.89457 0.437771 0.126486 -0.6855
468 1 10.9187 11.1412 6.40709 1.00184 0.706331 0.339927
1013 1 11.7282 10.9693 5.42539 -2.10643 1.82823 2.44616
939 1 0.739766 11.1524 8.48785 0.561963 0.401574 0.653959
409 1 11.9213 11.7724 8.12164 -0.167586 1.36034 0.605416
346 1 0.733344 0.204773 9.17705 0.445555 0.556642 -0.700963
899 1 1.29474 1.61182 8.42414 -0.0475221 -0.679755 0.729583
359 1 1.09197 11.3669 10.1364 0.368094 1.08176 1.41557
202 1 3.0977 11.6853 7.49135 0.0725185 -1.57528 -0.303514
1249 1 2.9539 1.70167 7.30579 -0.402701 0.433683 -0.955307
1261 1 4.9818 2.35426 7.8459 1.83993 0.340409 -1.12117
961 1 5.53985 0.154676 8.42919 -1.45772 -2.07267 -1.59538
74 1 6.26503 11.7821 7.84222 -1.37547 0.411566 -1.81623
1135 1 4.86339 11.0533 8.36213 -0.0699926 -0.0482877 0.239263
937 1 4.13568 0.694199 8.3646 -0.626294 -1.19436 -1.34797
120 1 7.17399 1.24445 8.66465 0.290077 2.28298 0.0749071
1316 1 7.35812 0.526571 7.23226 1.13489 0.553206 0.830186
172 1 6.67604 11.3715 9.02811 0.783623 -2.27771 -0.629783
456 1 9.4086 11.7179 8.54609 0.235866 -0.832286 -0.436384
384 1 7.22514 0.161724 8.22958 -0.0986509 0.127937 1.05238
29 1 10.8415 1.4275 9.0029 2.11727 0.1202 1.32399
381 1 10.3844 1.22037 9.897 1.82162 -0.593908 0.488173
1181 1 11.9021 0.38678 7.19559 -0.144558 -1.53854 2.07772
536 1 0.706893 0.773016 8.12429 -0.23714 -1.13555 -0.502271
896 1 0.281017 1.07284 9.89215 -0.462392 -0.206727 1.78404
1367 1 0.486852 2.5438 7.49875 -1.81379 0.377464 0.698205
1371 1 2.36979 3.08554 8.08839 -0.590504 0.696873 0.444335
187 1 1.84059 2.28763 7.89853 2.28784 0.814009 -0.772983
766 1 2.59658 2.89198 6.99503 -1.09964 0.368925 0.215878
1099 1 0.00683418 1.57674 7.55969 -1.45964 1.77115 1.27312
1147 1 4.30018 1.79523 7.20151 0.0982268 -0.489092 2.20616
313 1 3.42097 3.52759 6.44315 -2.23558 -1.3549 -0.417603
940 1 3.89664 1.76058 8.21419 0.0807478 -0.275535 -0.01833
62 1 5.4697 1.39947 6.22274 0.0997318 0.340439 -1.03898
546 1 6.61907 3.00454 8.18617 -1.69796 0.568794 0.61908
980 1 6.55235 1.05855 9.69692 -0.0345344 0.684578 -0.428734
581 1 6.37913 0.818355 7.93163 -0.579633 -0.790613 1.99917
705 1 8.2487 2.27676 8.39495 1.86743 0.705121 -1.64865
975 1 6.48721 4.52915 7.51036 0.34471 -0.338379 -0.56819
184 1 9.96246 11.4118 7.10966 0.67845 -2.2325 1.54064
336 1 9.44828 4.11258 6.42691 1.27093 -0.596223 -0.50041
675 1 8.97947 0.347095 9.2447 -0.706016 0.687301 1.6267
942 1 11.9672 1.08105 8.89706 0.430469 -2.35741 -1.14541
1098 1 0.502824 3.72214 7.6479 0.810828 0.729961 0.768354
600 1 10.9474 1.37258 7.90474 0.357961 -0.972705 0.715986
1150 1 10.2948 2.3208 9.98356 -0.574322 0.581983 -0.259141
196 1 0.743216 4.75623 8.47381 0.312022 0.0378424 -0.341259
8 1 11.9748 4.76226 7.56345 -0.147915 -1.16977 -0.785092
1294 1 1.58629 3.61643 7.68875 -1.00495 0.413994 -0.0141678
809 1 3.27111 4.75289 8.0559 -0.937012 0.153468 1.10038
285 1 1.28347 2.63574 6.8721 -1.29198 -0.713094 -0.931346
596 1 2.90859 3.79348 7.68614 -0.541146 0.0374966 -1.9072
1002 1 3.93775 3.19437 9.40407 -2.14367 0.751997 1.4781
242 1 2.30934 4.40782 8.28983 0.69401 -1.50452 -2.85218
739 1 4.25335 4.22861 8.04994 1.83027 0.162993 0.291897
663 1 5.52558 2.44713 5.7877 0.778745 0.561518 0.190686
282 1 7.54045 3.34201 8.47631 0.675893 -1.31423 1.85025
229 1 4.99616 3.31536 7.67655 0.724716 -1.22301 0.992981
836 1 5.87879 3.87298 8.46557 -0.475575 0.683235 -1.40702
28 1 5.35367 2.21163 6.84489 0.0130362 0.654559 0.469746
1140 1 9.21587 2.64793 9.93247 0.803001 -1.3569 0.0847954
807 1 8.47143 4.28408 10.4466 -0.386599 -0.857585 0.403626
101 1 8.8018 2.88072 8.97287 -0.963282 -1.24491 0.262046
845 1 8.5077 3.34668 7.99541 0.263688 0.113698 0.761821
85 1 10.7889 2.99818 8.67053 1.94898 0.265025 0.0826754
778 1 9.98291 2.33519 8.87089 -0.795567 1.23879 0.695134
630 1 11.5923 2.05852 8.44328 -0.237035 -1.24903 0.40883
63 1 10.2005 3.25814 7.75096 -0.311818 0.809887 -0.464919
1162 1 0.40074 5.07069 10.7253 -1.37451 -0.443912 -1.64161
435 1 11.9436 5.63774 8.2427 1.22319 0.477469 0.180271
200 1 2.09211 5.39192 9.01538 0.415836 2.15193 -0.941819
367 1 1.39339 4.22621 9.07832 0.195007 -1.04796 -1.10413
509 1 3.4495 3.62364 8.52139 -0.103001 0.765829 2.21242
785 1 3.63714 4.33277 7.06125 1.5716 -1.56041 0.0146526
565 1 4.61825 5.47118 7.38383 -0.559855 -0.125661 0.615821
379 1 5.22689 5.29431 6.49923 1.05989 -1.03669 -0.950654
786 1 6.28712 4.33452 9.26194 -1.38141 -1.01277 -1.3245
308 1 6.98468 4.2563 8.43582 -0.299008 -1.8066 -0.810058
725 1 6.51338 3.62288 10.043 -0.261919 0.221693 0.509221
685 1 7.702 4.6684 7.15899 0.650773 -0.12684 -2.10094
712 1 9.1239 5.09463 8.44093 1.14063 -2.18301 -0.651174
121 1 8.19303 6.52457 7.22713 -1.17136 1.27315 0.806351
152 1 8.89962 6.16179 7.94378 -1.04709 -0.238021 0.704861
1218 1 0.116412 5.4862 6.48462 1.86129 0.991118 -0.0514529
35 1 10.9687 4.80221 8.02955 -0.0820625 0.289489 0.692938
1168 1 0.211573 7.62179 8.50888 -0.812506 -1.41227 0.100298
95 1 1.18452 5.92706 8.1799 0.637637 -1.25004 -0.0461641
651 1 0.56062 6.81946 7.6852 -0.86365 1.58849 -2.9494
678 1 1.98476 6.14045 7.24113 0.834855 0.274645 -0.258562
1111 1 1.08999 5.74065 9.23927 -1.39653 0.424758 2.12287
1080 1 3.37228 5.76631 8.25899 -0.660397 -0.23918 1.92333
549 1 3.99682 6.37145 7.40455 -0.608142 0.521615 1.81398
1240 1 4.42359 6.90798 8.4778 -0.0292404 0.606111 1.63555
888 1 5.13514 6.53212 7.28263 0.540029 1.42326 0.631157
1122 1 5.24428 7.34905 8.9608 -0.711224 2.38661 -0.460576
790 1 4.23932 5.22767 8.39413 1.30648 1.25391 -1.43635
443 1 5.83877 5.33859 7.392 3.06583 -0.452635 -1.23807
714 1 5.80082 5.56502 8.45101 -1.4421 -0.947503 0.193066
946 1 6.51816 6.19333 7.87476 0.892749 -0.173841 1.91881
89 1 6.84954 5.40271 8.29981 0.819852 -0.53909 -0.428248
53 1 6.85536 7.42487 7.94909 0.176897 -1.58483 -0.0546417
1288 1 8.3225 5.66966 8.68533 0.441708 0.439793 1.88458
540 1 7.14905 6.29196 7.11911 0.348672 1.15196 -1.65026
451 1 9.33997 6.93667 7.25681 1.20235 -0.19257 -2.53895
1256 1 8.21596 7.46567 6.8017 1.33855 0.469729 -0.912122
732 1 10.6306 6.91216 7.04919 1.03073 0.171026 -1.30021
989 1 10.9967 7.35501 8.3406 -0.491735 -0.407915 1.52922
1054 1 11.3974 8.99579 7.36337 2.15952 -0.770129 -1.15408
1107 1 2.58789 8.58012 8.86797 -2.00704 -0.902564 1.22236
324 1 1.7077 7.61918 7.81434 -0.842083 0.60787 -1.94021
641 1 2.92067 6.82185 7.94316 0.323734 -0.0167472 -0.404172
1200 1 2.40392 7.41864 8.71882 -0.21205 -0.652241 -0.3339
145 1 3.74954 8.24471 9.1096 1.28543 -1.62293 -1.09745
529 1 5.28568 9.22159 8.79959 0.123504 1.84821 1.22262
1350 1 3.49386 7.08212 8.90339 -0.801982 -0.337879 1.54883
638 1 5.08342 8.36549 9.2945 -1.4664 -0.107368 0.769409
1191 1 6.77605 8.37866 8.57911 0.660855 -0.0694211 1.9457
1195 1 4.38554 7.37012 9.59013 1.82556 0.11099 -0.906963
585 1 5.81301 8.89022 7.94688 0.447436 0.384768 1.00122
215 1 7.72161 7.13615 9.16065 0.557653 -0.133776 -1.20648
117 1 8.63883 9.01604 8.30001 -1.14608 -0.573531 -1.28222
938 1 6.55189 7.37994 8.96627 -1.66479 0.343485 -1.02874
493 1 9.93504 7.50566 8.01315 1.63365 1.56406 -0.782521
377 1 9.88519 8.72515 8.11596 0.217773 0.236344 -1.36974
606 1 7.09381 7.35791 6.6369 0.0803736 0.440516 0.527116
1237 1 10.1067 7.85631 10.6909 -0.636265 -1.19923 -2.28788
54 1 9.41754 8.09484 7.31643 1.99868 1.94855 0.982672
1161 1 10.5949 8.15442 7.55264 -0.512923 -2.11087 0.816995
973 1 11.1829 8.18396 6.63327 0.969394 -1.52535 0.424537
338 1 0.70182 9.43926 7.47627 0.265397 -0.543286 1.7376
1092 1 0.948189 10.1614 8.29784 1.96192 -0.283457 0.27464
226 1 1.48395 8.71202 7.93911 0.413339 2.00915 0.893664
136 1 2.59781 9.82169 8.35009 -0.889969 0.0155205 0.5229
1012 1 2.56338 9.17387 10.3573 0.374489 0.575225 0.807003
302 1 3.12981 9.36825 9.55656 -0.746935 -1.61637 -0.585885
223 1 2.71607 8.81405 7.67307 1.61217 0.909128 0.162955
43 1 4.27469 9.27766 9.19855 -1.60689 -0.207695 1.00524
1051 1 2.18489 9.84844 9.38785 0.547302 0.726536 -1.61315
920 1 3.67137 10.4203 9.69223 0.0630764 1.19839 -0.410983
57 1 4.85724 10.0892 9.16643 -1.46814 2.14253 0.313979
816 1 5.80692 7.69346 8.03133 0.101575 -0.352522 0.149925
656 1 6.71497 10.3081 9.30693 -0.245697 -0.571787 0.568241
1077 1 6.32564 9.65256 8.5066 -0.508274 -0.791569 -2.09025
847 1 7.35249 9.61745 8.88426 -2.45465 -0.126167 -0.947801
709 1 9.37417 9.73439 8.16825 1.20077 -1.08526 -0.256384
805 1 10.02 10.3184 6.69101 -0.599531 -1.53098 0.344493
1220 1 11.2079 10.7701 8.25764 0.659372 -0.816328 -0.924132
1190 1 10.5447 9.55346 7.70385 -0.451825 1.51012 -1.19864
728 1 10.1414 9.61399 8.89969 0.630871 0.354642 0.623633
710 1 11.7842 9.61847 8.22901 0.680672 0.616893 1.98228
277 1 1.83579 10.9291 8.18596 0.868299 -2.19279 -1.22149
333 1 1.58559 9.15532 8.82923 1.07748 -1.03969 -0.462067
132 1 1.65146 11.4821 9.22643 -0.588292 0.857048 2.03595
1126 1 2.27119 1.14403 9.04964 0.634003 -1.00697 -1.88882
382 1 4.4138 11.065 9.34763 0.105246 -0.743746 -0.82422
652 1 3.30586 10.6577 8.49151 -0.0489998 0.337618 0.438547
1049 1 2.46583 10.7677 9.17881 -0.0137885 -1.00933 0.457558
1035 1 2.25354 10.5925 10.3383 -1.27885 1.46551 -2.46558
553 1 4.27496 10.2428 8.3796 -0.0286046 -0.0169571 -0.656467
603 1 5.36583 10.0966 8.03916 0.420313 0.177535 0.677878
811 1 7.53037 9.32626 7.54383 1.12856 0.595945 -1.22792
769 1 6.66252 10.6126 8.28824 0.120625 0.941484 0.342736
1037 1 9.89529 0.683464 8.79958 0.523901 -1.11621 -0.185606
604 1 8.24199 0.0883373 8.32378 -0.82674 0.01269 -0.224557
626 1 8.84679 10.8455 7.96032 -0.926733 -1.25522 -0.163509
1072 1 8.37633 9.96212 8.61089 -0.356819 -1.91522 -0.408536
127 1 9.86524 10.5344 7.68562 -0.715827 1.29343 1.64328
135 1 10.2433 10.9606 9.19782 1.00318 -0.534067 0.535887
1039 1 10.4442 11.522 8.18511 -0.0871058 -0.239514 -1.3409
1004 1 0.082959 10.4478 7.71158 1.44512 -0.22029 3.12285
318 1 0.226453 10.3089 9.00099 0.22858 -0.201617 1.05139
251 1 11.5892 0.620486 10.7959 -0.327426 0.465333 0.0331537
645 1 0.322474 11.2126 9.49321 -0.394765 -1.07001 -0.331584
1026 1 10.8693 11.9666 10.8335 -1.50376 -0.933959 -1.13728
321 1 2.76661 2.00287 8.31826 -1.05575 -1.77849 0.570832
1028 1 1.82666 1.00976 10.9127 1.00889 0.776291 0.0224755
486 1 0.308783 11.5645 11.0108 0.467667 0.193594 -0.330274
309 1 3.00071 0.922115 8.14175 -0.838529 -1.73557 -1.76067
502 1 3.41468 0.578601 9.04279 -1.03997 -1.31621 -0.569783
764 1 3.28296 0.232622 10.1574 0.303675 1.57645 1.14163
664 1 6.36655 0.342887 8.9519 -0.0335251 0.365718 1.11926
448 1 7.70135 0.133431 9.25232 -2.51959 -0.320936 0.116932
303 1 7.62127 1.57248 9.64018 -1.35223 1.28933 -1.11191
344 1 7.28053 0.635649 10.3036 1.65448 -0.152649 1.47624
815 1 5.35006 11.6319 9.2741 0.648675 1.35696 -0.94329
803 1 5.5642 11.6062 10.8705 -0.181575 0.0407924 -0.547108
1341 1 8.21825 0.944449 8.89228 -0.0620394 -0.299793 -0.627816
547 1 7.97592 1.78283 10.6112 -0.77562 0.798998 1.67399
1021 1 9.04757 1.6712 9.99792 0.54393 0.172189 0.756474
450 1 8.37674 0.755441 9.9504 0.417843 0.717897 -0.687969
1201 1 10.406 0.819652 10.8636 -0.116257 -0.13168 0.479455
122 1 11.1375 0.502275 8.53762 -0.615284 0.202246 -0.565103
301 1 0.0704511 11.9665 10.0653 0.296721 -0.233875 -0.438621
771 1 11.3024 1.67985 10.4155 -0.677526 0.185885 -0.231196
176 1 1.5482 3.2796 8.70017 -1.43142 -0.389436 1.82227
1149 1 0.850324 2.49807 8.63163 -1.24238 0.462873 -0.504155
1055 1 1.35617 2.4615 10.0943 2.12344 -0.762228 1.17472
1059 1 2.12052 1.75229 9.89617 -1.34985 0.671802 -0.429891
1337 1 1.79434 3.28956 9.69231 -1.74338 0.480238 0.279659
964 1 3.92941 2.22313 9.93327 -0.290993 -0.71765 -0.0649969
467 1 1.09357 1.45168 10.3317 -0.726816 0.472259 1.58355
281 1 2.23713 2.51338 9.12019 0.773946 -0.315856 -0.281501
1124 1 3.30486 2.63486 7.67166 0.583187 0.264863 0.601375
1281 1 3.16238 1.55572 9.12445 -0.216346 -0.715944 -0.14927
1063 1 4.98741 2.52147 9.63714 1.56411 1.47214 0.68639
238 1 5.72046 2.47363 8.54837 0.843667 2.02651 -0.435076
1363 1 4.30348 1.29849 9.53334 0.306383 0.115332 1.64851
5 1 4.87538 1.79682 10.4516 0.988487 -0.294318 0.381372
987 1 4.71721 1.95937 8.81358 -0.0766924 -0.982408 1.34535
1041 1 5.96368 3.21097 9.26168 0.558887 0.31377 -0.0617352
856 1 5.5898 1.55972 9.62456 0.314113 0.167218 1.05491
998 1 5.90354 1.84134 10.8546 -1.83855 1.21474 -1.74586
153 1 9.03251 1.7895 8.95581 -1.75968 0.78423 -0.966072
1268 1 7.86281 1.2033 7.93221 -0.37593 -1.83168 0.214681
563 1 7.07197 2.55839 9.00305 -0.0894344 -0.600235 1.07555
693 1 8.81597 1.08896 10.9253 -0.673267 0.676466 2.06122
560 1 9.41158 3.26965 7.06389 0.704172 -1.36112 -0.832032
941 1 10.2944 3.18911 9.53603 -0.0918578 -0.000197344 0.755066
140 1 11.2614 2.46226 9.54095 1.25188 1.20529 0.296033
588 1 0.244253 2.17255 9.49514 -1.16568 0.906765 1.31739
791 1 0.312001 4.96474 9.33704 0.263202 -0.990322 0.629835
462 1 2.72269 3.59742 9.19705 0.698047 -0.937913 0.256172
1005 1 4.48687 3.07267 10.4964 -0.00893724 -1.1035 -1.53575
1271 1 2.87846 2.4536 9.93167 1.34872 -0.0423587 0.207872
700 1 4.2077 2.99178 8.27629 -0.137703 -0.987182 0.735848
907 1 3.21387 3.43607 10.2088 -1.64304 0.0132999 -1.83083
457 1 3.57713 2.41041 8.96416 -0.638723 -0.213806 -0.349652
594 1 3.1702 4.60308 10.4084 -0.329344 -1.6745 -0.899381
996 1 5.15375 4.04579 9.85873 -2.04792 -1.66057 1.01435
479 1 6.48939 4.93763 10.1808 0.277971 -1.20391 0.767584
131 1 8.45157 3.31415 10.2256 -0.686354 -0.761744 -1.90339
1208 1 6.38557 2.39027 9.8826 -0.0825688 -0.590607 1.44356
391 1 9.07556 4.27767 8.91035 0.624084 0.471291 0.813192
1 1 9.67886 3.43583 8.6998 0.634544 0.0604454 -0.269142
891 1 10.7236 4.67131 10.0506 -0.496369 0.0320037 3.13815
1123 1 11.2437 3.61608 9.40808 0.546561 -0.0247633 0.185938
1100 1 11.9078 2.97237 8.73809 1.38993 -0.406684 1.14538
684 1 11.74 3.94414 8.29003 2.22848 1.44071 1.00858
759 1 11.4854 5.64147 10.1793 0.29221 -0.0929224 1.64679
1204 1 2.1609 4.65198 9.90763 1.70821 0.512205 1.75248
1303 1 1.15946 5.61624 10.3245 -1.41427 -1.39477 -0.828354
1087 1 0.231495 3.91394 9.31731 1.03713 -0.269514 -0.787156
655 1 2.14556 5.64764 10.1686 0.0440777 0.874897 2.32187
1141 1 4.16963 4.38055 9.12783 -0.0419773 -1.25342 0.50018
1343 1 3.21593 5.1005 9.03779 -1.18887 1.74144 -0.447511
1291 1 1.58711 4.68843 10.7656 1.61211 0.663586 2.12463
1095 1 5.13367 4.64437 8.71325 -1.29437 -0.303156 -0.733816
1029 1 4.83945 3.41529 8.86461 0.96401 -1.33477 -0.584367
852 1 8.11014 3.77973 9.40046 1.09485 0.255996 1.42431
49 1 4.85104 5.04289 10.7532 -0.380609 0.87016 -1.39555
159 1 6.67773 6.36671 8.90914 -0.26875 -1.55382 -0.69657
913 1 8.21524 4.28609 8.10304 -0.35827 -0.510151 -0.0837676
532 1 6.88882 2.68726 10.804 0.652191 -0.0744764 -0.0215977
181 1 8.04773 5.23112 9.72986 -1.88594 0.239269 -0.993279
1362 1 8.72189 6.16978 9.63904 0.615537 0.350138 1.02256
1064 1 10.0739 4.74375 9.1678 0.147688 -0.180865 -0.95899
779 1 9.3664 5.92231 8.95295 -1.27998 0.054205 0.36942
340 1 7.44033 4.33498 9.91741 1.44804 0.0669679 1.15095
75 1 11.1185 5.11243 8.98884 -0.596439 -1.08377 -1.70666
758 1 11.6127 5.98694 9.26303 0.182472 0.297765 -0.226011
464 1 11.1593 6.60599 9.96404 1.49703 0.308157 0.983002
1349 1 10.1894 6.54135 8.51225 -0.560158 -0.866315 -0.974911
1018 1 0.37115 6.70468 10.2228 -0.917647 0.856403 -0.161461
362 1 0.499314 6.39044 8.73037 -1.69696 -2.07006 -2.0392
1062 1 0.000894835 7.63808 10.3187 -0.0224864 -0.685514 0.0661367
879 1 1.3275 6.57532 11.0938 -0.358636 -0.392967 -1.5367
931 1 2.86405 6.22186 9.4731 1.3217 1.68242 -0.469585
993 1 2.51878 8.06613 10.623 0.803389 -1.49331 -0.803959
249 1 3.75748 5.40529 10.1009 -0.219531 -0.83259 -2.28566
658 1 2.12992 6.59573 10.5363 0.146197 1.22469 -0.313211
981 1 4.29546 8.54462 10.2822 1.26853 0.498567 -0.396289
1171 1 6.68298 6.14814 10.0632 -0.0842403 -0.373702 -0.738357
360 1 6.97339 5.28516 9.32042 -0.146565 -0.715595 -0.237248
503 1 4.08369 6.21158 9.11021 0.315004 -0.903925 -1.15297
87 1 4.82536 5.27592 9.72994 -1.96896 1.38551 -0.190816
113 1 5.23399 7.93888 10.2157 0.986978 -0.0975287 -0.444382
680 1 8.20383 8.02505 10.9391 0.218384 1.10126 -0.792512
783 1 5.83456 6.67523 9.63822 -0.230273 -0.606895 1.98576
364 1 7.97091 7.25239 10.3624 -1.33736 -0.352181 0.302785
1279 1 8.52251 8.04316 9.67897 0.181628 -1.48552 0.409984
900 1 8.72945 7.06712 8.46714 2.15131 2.7463 0.939873
1306 1 9.42864 7.59816 9.73789 -0.248397 0.45457 1.28902
936 1 7.7095 6.649 8.14486 -1.15508 0.841653 -0.826973
1015 1 10.9565 7.72765 10.2262 -2.04013 0.643738 0.432325
328 1 0.204089 8.7967 8.08509 -0.548343 -0.35549 0.503796
801 1 0.996808 8.11667 8.79777 -0.0135069 -1.35408 -0.114505
514 1 0.791447 8.02314 7.72063 1.08528 -0.615083 -1.0045
1000 1 0.794905 9.31213 9.50747 0.298865 0.691838 -0.0482556
471 1 3.16655 8.93025 0.0590961 0.744889 -0.244027 -2.27784
1286 1 2.21047 6.20427 8.3851 -0.335715 0.105863 1.12269
219 1 1.79986 7.51955 11.1914 -2.20491 1.46397 0.250692
370 1 0.710345 7.3624 9.48468 -1.13299 -0.265836 -0.325105
518 1 2.78521 7.21697 9.73046 -0.358834 0.529496 0.559935
44 1 1.23478 7.09268 8.55186 -1.66552 -0.314266 1.04707
872 1 1.58027 6.66037 9.4826 1.52964 -0.00488672 -2.40702
1070 1 4.31384 7.43903 11.6508 0.771242 0.301724 -0.290735
1272 1 6.2189 7.33059 10.3361 0.0743401 -0.96923 -0.0944288
571 1 4.99852 5.83943 8.93325 1.01205 -0.365718 0.259833
183 1 3.23101 8.3569 9.99699 -1.30208 -0.738282 -0.249852
1170 1 6.38305 9.21088 9.385 0.554093 0.136866 0.591693
369 1 9.30582 7.92779 8.76944 0.19342 1.13071 0.985166
453 1 6.22527 8.07092 9.66252 -0.190479 -0.153575 0.28287
1132 1 7.94099 7.93048 8.53566 -1.54957 1.56099 -0.565785
875 1 7.45979 8.17005 9.4261 -0.85348 -1.15448 -1.5048
1196 1 9.12162 9.70214 10.909 0.0191498 1.22939 -0.907295
477 1 10.5848 8.14645 8.92697 0.0373968 -1.62139 1.12785
498 1 9.32111 8.95044 9.19153 -1.33633 -0.481577 0.606654
231 1 11.614 8.67733 10.2683 -0.186642 -1.0347 -1.08404
934 1 11.7092 8.42125 9.10816 -1.10752 0.0787361 0.335435
365 1 0.663057 9.34232 10.5162 1.50209 -0.463222 -0.0233692
248 1 11.2991 11.0722 10.3839 -0.930294 1.11486 1.38382
1093 1 1.5151 8.67569 10.0945 0.116345 -1.28809 -0.390328
722 1 1.75163 8.72276 11.1348 0.717651 -0.568186 1.89169
967 1 3.29831 10.2523 10.6745 -0.24993 -0.764676 -0.37965
702 1 2.06562 7.92545 9.58419 1.18106 -0.866068 -1.43033
1088 1 4.33635 9.57447 10.3264 -0.823275 -0.181955 -1.08951
707 1 4.79839 6.56029 10.1141 2.44551 -0.110912 0.738609
1033 1 3.50153 9.21204 10.84 -1.28358 -1.1203 -0.560882
1217 1 5.80309 9.99959 9.77115 0.161282 -0.374726 0.499482
1138 1 6.26078 8.8836 10.8131 -0.166579 1.48689 -0.206588
558 1 7.04515 9.73135 11.0925 0.793424 0.442481 -0.514295
210 1 8.78509 10.4878 11.6146 0.938606 0.925479 0.258121
449 1 7.42096 10.6855 10.2186 0.828334 0.539076 2.33577
1245 1 7.12701 9.60844 10.1063 -1.51303 -0.022584 0.0390145
133 1 8.19966 10.2565 9.62712 -0.905872 -0.741892 -0.0760513
915 1 8.21522 9.02926 9.30802 -0.665719 0.897658 -0.375897
1075 1 11.8492 9.41886 9.25337 1.21575 -0.227228 0.184729
994 1 11.1275 8.90655 8.37031 -0.282311 0.626501 0.058415
294 1 10.8665 9.03714 9.61257 -0.736276 -0.601234 1.04593
1348 1 1.62069 9.62945 10.4163 0.234634 -0.942335 -0.281156
434 1 0.62596 10.3949 10.1554 -0.414707 -1.74367 -1.7812
526 1 2.44549 0.195763 9.33961 0.259786 -0.134718 0.365409
424 1 1.8124 0.665283 9.95745 0.0968985 -0.442564 0.411247
1203 1 1.22721 10.4594 9.30639 0.0330198 0.384913 -0.248065
289 1 2.19092 11.7 10.3425 -0.0508292 0.511176 1.5483
487 1 4.32626 10.8002 10.4374 -1.4537 1.59177 -1.02606
1330 1 3.9892 11.6443 8.47004 1.24967 0.0828422 -0.482837
31 1 3.07607 11.3918 11.0154 -0.09082 -0.301741 -0.637157
504 1 4.33886 0.165779 9.30638 0.0107866 -1.17012 0.0713491
812 1 3.28441 11.5194 9.36936 0.915686 -0.574012 -1.56392
521 1 4.85124 11.9469 10.1511 -0.894598 1.3171 0.500313
953 1 6.28727 11.88 10.0828 -0.125341 1.60443 0.632583
557 1 5.7686 10.6195 8.90645 0.592949 -1.41371 -0.659309
902 1 6.35251 10.8431 10.1957 -0.183417 0.438179 -1.22212
1302 1 7.68542 11.1286 8.72184 1.48506 -0.42667 0.976609
831 1 8.64293 10.8168 10.446 0.342925 0.23372 1.69448
1238 1 8.45355 11.2962 9.54356 0.856397 -1.09004 -0.174425
385 1 9.33315 10.5754 8.87878 -0.126324 0.955089 -0.97234
1355 1 11.179 0.548658 9.61385 0.535424 -1.10952 -2.52793
499 1 11.0613 10.1924 9.18328 -0.920667 1.42861 -0.0960114
1298 1 11.8783 10.5136 11.0883 -0.935834 1.09201 1.10943
1287 1 11.3653 11.3471 9.22086 -0.510627 1.29758 -0.678439
670 1 10.4743 11.7717 9.88939 -0.00561542 0.483943 -0.624103
1179 1 10.78 0.668307 11.9478 -1.70569 -0.775157 1.46456
840 1 0.293419 2.21275 10.6562 0.47525 0.0370912 -1.1415
1113 1 11.7284 0.1392 11.8012 -0.614404 0.711162 1.85838
753 1 1.53963 0.892299 0.558012 0.343039 -0.114498 -0.776453
422 1 1.29249 1.9513 11.3196 -0.640633 0.631939 -0.910298
697 1 1.93566 0.438157 11.7845 0.544513 0.508937 -0.201885
999 1 2.29951 1.47048 11.7723 0.347767 -0.375429 0.216042
1221 1 3.83651 11.9954 11.1913 0.318115 0.849607 -1.75169
458 1 3.4468 1.16933 11.1828 0.96373 0.249774 0.713243
694 1 4.11411 0.675611 10.4577 -0.842946 -0.286223 -0.772908
218 1 4.08327 1.97569 11.2121 -0.784753 -0.48574 -0.348706
1215 1 5.17956 0.753799 9.21354 -0.605438 0.912741 -0.57949
699 1 4.21939 0.399275 1.11902 -1.5624 -0.174397 0.627258
1275 1 5.959 11.318 11.8615 0.791442 1.23247 -0.718841
10 1 5.21889 0.837807 10.3674 -0.712422 0.475385 0.16999
1297 1 9.33357 1.43793 11.7815 0.3293 -0.496686 1.39143
207 1 6.2736 0.887684 10.7211 1.63063 0.0358977 -0.200967
1214 1 7.77914 11.6627 10.2995 -1.31563 -3.94598 -1.77206
723 1 9.13725 11.6299 12.0031 1.45379 -0.0691806 0.345295
25 1 9.76477 11.5623 10.9848 -0.59388 -1.43562 0.107326
311 1 9.56345 0.468171 11.5036 0.0844357 -0.997898 0.949868
1373 1 0.0614839 0.729079 0.601685 1.41013 -0.814862 0.664516
414 1 0.488966 1.28452 11.2707 -0.213276 0.20403 -1.69652
1364 1 1.79482 3.60374 11.5856 0.0709255 0.267788 -0.880572
225 1 0.868257 0.40729 10.5718 1.44527 0.0343381 -0.528305
1121 1 2.67352 1.96448 10.9777 -1.55166 -0.698246 -0.36699
1222 1 3.15899 1.4489 10.2253 -0.0974005 -0.106222 -1.41306
647 1 5.57609 3.44263 1.11906 1.12815 -0.294927 -0.461558
1321 1 4.38245 1.86218 0.385609 -0.67816 -0.326236 1.72725
798 1 5.18964 2.77493 11.1163 2.09483 0.0945217 -0.0606288
745 1 6.89112 1.69507 10.4166 1.15684 0.0161867 -1.00214
515 1 6.13631 1.43917 11.8314 -0.178653 -2.44446 0.133132
620 1 7.98908 1.66406 11.7204 0.749784 0.608998 0.439393
1284 1 7.9684 2.72247 11.0452 1.87746 1.18687 -0.721583
260 1 9.20507 3.24909 11.4124 -1.64713 1.22236 1.07899
156 1 8.20872 2.40386 9.75911 1.36873 -0.913083 1.30909
1354 1 8.92236 2.33228 11.0875 0.223065 1.41733 0.19508
383 1 9.89732 2.93301 10.7816 -0.597515 -0.409051 0.992302
1301 1 9.38157 3.87519 9.8764 -0.676024 -2.13994 1.16084
419 1 11.5068 1.37315 11.6506 -3.86649 0.344038 0.110705
341 1 10.7459 1.96781 11.1835 0.0555595 -1.23994 -1.79273
1378 1 10.9539 2.93987 10.6368 -0.820179 0.621382 -0.705959
50 1 9.33862 3.08541 0.666428 2.06165 -1.21997 1.57011
904 1 0.83656 3.11454 9.42852 -1.3481 0.138678 -0.718413
246 1 11.8309 3.16479 10.0295 -1.76874 -0.94125 -1.3148
1174 1 10.8237 3.14056 11.7135 0.608225 -1.01302 1.09844
182 1 11.8184 2.80041 11.405 0.788143 -0.520431 0.935897
749 1 3.42335 2.64669 10.9056 1.00131 -1.85821 1.14725
538 1 1.39383 4.31502 0.788971 -0.822434 0.179622 0.728917
690 1 0.452608 3.67978 10.733 -1.17568 -0.489493 -0.605043
855 1 2.07896 2.82494 10.9292 0.602258 1.30941 -0.58142
416 1 3.86569 3.81824 11.117 0.354612 1.41138 1.90395
886 1 1.98481 3.85378 10.5618 -0.380691 0.809608 -0.482359
201 1 2.94037 4.12915 0.0677798 0.888136 0.683857 1.12237
402 1 4.93667 3.89653 10.974 -0.295259 1.56305 1.23555
869 1 6.0345 4.13493 0.167745 -0.164958 0.187158 0.363859
819 1 5.75169 4.47138 10.7064 1.00351 -1.91738 -1.5135
1050 1 6.4059 3.61693 11.0712 -0.479297 0.0549941 0.59644
179 1 7.38089 3.0582 9.89526 0.747881 0.16537 -0.279198
1019 1 5.51596 3.1537 10.208 -0.757555 -0.318357 -1.23644
173 1 9.78696 1.91741 0.715436 0.279569 -2.26865 0.782286
727 1 8.87962 5.23176 10.9688 1.42516 0.357318 0.885403
545 1 9.75751 1.69722 10.822 0.616814 -1.07739 -1.06466
520 1 8.29863 3.97371 11.4686 0.507771 1.05418 -1.06861
1034 1 10.0004 3.89624 11.5322 1.47017 1.01665 -0.0697448
1016 1 10.8788 3.92595 10.6699 -0.490872 -1.22813 -1.5297
949 1 11.6863 4.46999 10.1136 0.322873 0.215301 -0.912668
609 1 2.03192 4.65682 11.9731 -1.77128 -1.06405 -0.184651
1167 1 11.8781 3.97003 11.4862 -0.504936 -1.33605 -1.73615
1078 1 0.910304 4.43853 11.661 1.63407 0.253843 0.25782
882 1 2.48454 5.31879 11.1261 -1.30704 0.229561 -0.291898
266 1 0.94552 4.43115 10.0307 -0.292437 0.302082 -0.527818
334 1 3.08934 5.76054 0.0515139 -2.05701 0.737089 -2.20206
884 1 3.73335 6.66479 10.0048 0.177265 0.847285 1.47147
123 1 3.59503 5.05058 11.3364 1.04076 -0.076213 0.629828
192 1 5.72117 6.25761 10.6316 0.0749197 1.18375 -1.90037
642 1 6.32922 5.5469 11.135 -0.445605 -1.4949 1.22973
371 1 5.60629 5.55596 0.776105 -1.49649 -0.575217 0.269813
1115 1 7.72028 6.11729 9.27175 -0.250581 0.17845 -0.0545983
551 1 6.86915 4.53349 11.3796 0.335893 -0.882789 -0.0910516
40 1 7.26386 5.45149 10.5606 2.48274 -0.262697 0.43918
455 1 8.57185 5.27691 0.0997518 0.207258 -1.52879 0.474211
38 1 9.21442 5.18555 9.7399 -0.177117 2.00974 0.526834
554 1 7.47119 3.70984 10.8392 -1.06376 0.568288 1.23881
841 1 10.5312 5.73978 9.56775 0.471256 -0.537195 -1.14092
137 1 11.9305 5.65078 0.692857 -0.228278 -0.805467 0.771154
1169 1 11.5984 7.1378 9.24016 -2.29676 -0.810342 -0.271066
1233 1 10.4155 4.82015 11.4188 0.539532 -0.421688 0.366085
1106 1 10.3404 5.40865 10.5169 0.35455 0.294302 -0.82886
66 1 11.2831 4.94176 10.9345 0.861153 -2.59132 1.61457
1270 1 0.544365 8.30963 9.82921 0.361499 -0.130304 -0.433471
474 1 0.208701 6.14204 11.4457 0.590054 -0.507334 0.133264
80 1 2.14228 8.58002 0.065342 -0.457303 1.68887 -1.19696
1224 1 0.995798 6.39578 0.30311 -1.47536 -0.541031 1.01579
71 1 2.65604 7.60158 11.7056 1.09141 1.49974 -0.858593
914 1 3.09076 7.17061 10.847 0.757258 0.896349 1.41345
1017 1 5.16921 7.05492 11.0989 -1.42875 0.762149 -1.8682
911 1 7.58244 5.64818 11.7126 1.00813 -0.419745 0.753879
480 1 5.79536 5.65927 9.66959 -0.945427 0.602083 -1.97298
1307 1 6.56985 5.20012 0.334076 -0.385374 -0.698242 0.376674
1024 1 7.12072 7.28798 9.98769 0.141453 0.47521 1.90869
1159 1 6.5009 7.31213 0.325361 -0.057819 -2.8095 1.00165
542 1 9.49922 6.05037 10.5517 0.984676 -0.265885 0.190602
1250 1 9.51778 8.79271 10.1366 0.793724 -0.969542 0.633374
188 1 8.86002 6.06872 11.4441 0.0405727 -0.67374 -0.151584
523 1 9.774 7.38541 11.9365 -1.64202 0.27103 1.22093
475 1 10.0181 6.67543 9.69642 3.61062 1.80375 -0.0879994
926 1 9.67859 4.6276 10.7159 0.604222 -0.742934 1.00057
271 1 10.6413 7.40463 1.12426 0.618987 0.262857 1.56285
1031 1 10.204 6.85995 10.7291 -0.268941 1.07821 -0.588468
1253 1 0.489903 7.80989 1.51109 -0.576969 -0.304549 0.484485
26 1 1.14496 7.54981 10.3707 -0.62938 -1.11829 0.470719
574 1 1.07307 8.35033 11.9232 -0.346451 -0.427854 -1.51388
278 1 2.33491 9.51557 2.07807 0.576582 0.540997 -0.02071
846 1 1.41799 5.63913 11.3053 0.763156 1.58382 -0.430437
4 1 3.55809 7.80285 0.472841 -0.692428 0.22834 0.178856
129 1 4.05006 7.51525 10.5906 0.436077 -0.421701 -0.700833
1318 1 3.76096 8.34756 11.3914 -0.0517218 -1.66511 -0.441921
851 1 5.42928 7.54145 12.0038 2.36966 -0.0221005 0.476059
933 1 5.01745 8.32417 11.222 0.912108 0.301656 0.241861
990 1 5.74616 6.63317 0.46645 1.13858 -0.464189 0.54246
715 1 7.02341 7.80107 11.4379 1.45972 -0.488522 -0.239333
548 1 6.98103 8.18809 10.5059 -0.932458 0.450097 -0.154151
412 1 5.94619 7.86711 11.1628 -0.0572505 -0.174521 -0.0420232
243 1 8.77049 7.02464 11.0598 -0.233819 0.205635 -2.07144
597 1 9.48728 9.53893 0.356244 -0.632943 0.208413 -0.601707
433 1 7.94769 8.26065 11.9263 -0.195482 0.296897 0.289825
833 1 8.52786 9.11102 10.3225 -1.09113 0.094739 -0.79761
799 1 10.9248 7.88473 0.173363 0.548606 -0.485588 -1.08394
842 1 11.5204 6.91464 10.8446 -1.39109 -0.861725 -0.497095
737 1 11.3972 8.01275 11.1974 -0.66939 0.491657 0.204312
1096 1 10.922 8.88353 11.1554 0.16025 0.215605 0.549255
97 1 0.255429 9.03023 2.43212 -2.7449 -0.0127267 0.804424
56 1 0.44035 8.4144 10.8797 -0.800736 0.528649 0.139716
768 1 1.4349 8.20546 1.42838 -1.39906 -0.210123 -0.542541
125 1 2.5197 9.39747 11.3357 -2.01762 -0.64105 0.0404843
679 1 1.28782 9.16897 0.616816 -0.135258 0.76317 0.715762
252 1 2.40877 11.4888 11.9193 -0.151441 -0.827171 0.579026
2 1 3.03604 9.85262 1.18866 -0.125935 0.368969 -0.626873
165 1 2.18787 10.8324 11.3107 -1.38695 1.28874 0.201289
1295 1 4.58423 9.31149 11.2434 -0.0960865 -0.507568 -1.65195
79 1 4.00879 10.1238 11.6339 -0.579948 -1.76889 1.01071
1376 1 5.23499 9.18726 9.9848 -1.29716 0.484704 1.55232
37 1 3.60625 11.1432 11.9217 0.822236 0.613819 0.0419071
326 1 6.97789 10.748 11.2622 0.806389 1.44409 0.165901
500 1 5.70467 9.92008 10.8094 -0.708217 0.461092 0.0992109
1143 1 5.34069 10.8682 10.0863 -0.470694 -0.496332 -0.0350457
100 1 5.12878 9.66721 0.133313 0.193479 -2.1055 0.982479
947 1 7.61015 10.3705 11.9585 1.05559 1.02943 0.0750702
203 1 9.33652 10.0933 9.95937 -0.177625 -0.183445 -0.0769888
1323 1 11.5417 9.79079 10.2539 0.48773 -0.967496 -1.6559
1069 1 10.459 10.0233 10.0654 1.03553 -0.811885 0.731576
349 1 9.49977 11.1915 9.98414 -0.860663 1.24602 0.813642
719 1 0.525514 7.34562 11.4461 -0.784501 -0.232055 0.20627
1192 1 10.9031 11.0747 11.6049 0.988708 -0.164725 0.072472
1146 1 1.11943 11.1444 11.9687 2.00712 -1.29044 0.224226
903 1 1.24702 9.44267 11.5509 2.79803 -1.83082 0.792085
199 1 1.67565 10.2427 0.236424 -0.755889 0.00669062 0.188775
167 1 1.17958 10.3798 11.016 -0.0163206 0.242413 0.486603
473 1 1.93686 10.1812 1.27452 -0.112348 -0.495917 -0.823899
927 1 1.58972 11.8285 0.542211 -0.959412 0.395608 -0.698234
267 1 2.40342 9.53225 0.547147 -0.474463 -0.354694 0.455915
253 1 5.58281 11.8226 1.13146 1.41937 0.481047 -0.147792
355 1 2.78495 0.405528 11.1376 1.75617 0.20814 -0.223808
672 1 4.86886 0.20686 11.2252 1.1352 -1.04953 -0.167136
491 1 4.38362 11.7945 0.31893 -0.594652 -1.19006 0.327681
1328 1 4.68257 10.6993 0.375962 -0.171084 0.65125 -0.111083
12 1 4.76946 11.0315 11.3635 -0.037719 0.970288 0.586272
1266 1 5.71192 10.6564 1.00998 -1.53611 0.951457 -0.248169
168 1 8.0672 9.96393 10.7334 0.824723 -0.242665 0.00959646
1131 1 8.14763 11.1802 0.233982 0.0910953 0.476902 0.962637
724 1 9.66745 10.5527 10.946 0.015708 1.0799 -0.608416
1136 1 9.71917 10.5468 0.012581 -0.229364 -0.537855 0.45142
918 1 7.92427 11.2474 11.1654 -1.57978 -0.783345 0.9687
164 1 9.58144 0.290026 10.1435 -0.982866 0.604776 -0.121346
632 1 8.71017 11.8726 10.877 -1.04744 1.07285 -0.964862
1027 1 0.147077 11.3325 0.276058 -0.337917 -0.365549 2.40756
